 VARIABLES = X,Y,Z,DU1,DU2,DU3,U1,U2,U3,S11,S22,S33,S12,S13,S23,OMEGA,EP,E11
 ZONE, T="0.1000D-01" F=FEPOINT, I=   12 J=    2 ET=BRICK
   0.0000000000E+00  -0.1917478202E-05  -0.1917478202E-05   0.0000000000E+00  -0.7485415189E-08  -0.7485415189E-08   0.0000000000E+00  -0.1909992787E-05  -0.1909992787E-05   0.8458376864E+01  -0.1391178844E+01  -0.1391178844E+01   0.5625610967E+00   0.5625610967E+00  -0.1181785193E-10   0.0000000000E+00   0.0000000000E+00   0.1339551912E-03
   0.1000148620E+01   0.6237567771E-04   0.6237567771E-04   0.4009163537E-06   0.1478510870E-06   0.1478510870E-06   0.1482189681E-03   0.6222782663E-04   0.6222782663E-04   0.3906316361E+02   0.6236616206E+01   0.6236616206E+01   0.5624294193E+00   0.5624294193E+00  -0.4027999080E-10   0.0000000000E+00   0.0000000000E+00   0.4993138161E-03
   0.1000148620E+01   0.9999376243E+00   0.6237567771E-04   0.4009163536E-06  -0.1478510870E-06   0.1478510870E-06   0.1482189681E-03  -0.6222782662E-04   0.6222782662E-04   0.3906316360E+02   0.6236616206E+01   0.6236616206E+01  -0.5624294194E+00   0.5624294192E+00  -0.1042716052E-14   0.0000000000E+00   0.0000000000E+00   0.4993138161E-03
   0.0000000000E+00   0.1000001917E+01  -0.1917478202E-05   0.0000000000E+00   0.7485415188E-08  -0.7485415188E-08   0.0000000000E+00   0.1909992787E-05  -0.1909992787E-05   0.8458376863E+01  -0.1391178844E+01  -0.1391178844E+01  -0.5625610968E+00   0.5625610967E+00  -0.6254086367E-15   0.0000000000E+00   0.0000000000E+00   0.1339551912E-03
   0.0000000000E+00  -0.1917478202E-05   0.1000001917E+01   0.0000000000E+00  -0.7485415188E-08   0.7485415188E-08   0.0000000000E+00  -0.1909992787E-05   0.1909992787E-05   0.8458376863E+01  -0.1391178844E+01  -0.1391178844E+01   0.5625610967E+00  -0.5625610968E+00  -0.7357097886E-15   0.0000000000E+00   0.0000000000E+00   0.1339551912E-03
   0.1000148620E+01   0.6237567771E-04   0.9999376243E+00   0.4009163536E-06   0.1478510870E-06  -0.1478510870E-06   0.1482189681E-03   0.6222782662E-04  -0.6222782662E-04   0.3906316360E+02   0.6236616206E+01   0.6236616206E+01   0.5624294192E+00  -0.5624294194E+00  -0.1356622026E-14   0.0000000000E+00   0.0000000000E+00   0.4993138161E-03
   0.1000148620E+01   0.9999376243E+00   0.9999376243E+00   0.4009163536E-06  -0.1478510870E-06  -0.1478510870E-06   0.1482189681E-03  -0.6222782662E-04  -0.6222782662E-04   0.3906316360E+02   0.6236616205E+01   0.6236616205E+01  -0.5624294193E+00  -0.5624294193E+00   0.4027759146E-10   0.0000000000E+00   0.0000000000E+00   0.4993138161E-03
   0.0000000000E+00   0.1000001917E+01   0.1000001917E+01   0.0000000000E+00   0.7485415187E-08   0.7485415187E-08   0.0000000000E+00   0.1909992787E-05   0.1909992787E-05   0.8458376863E+01  -0.1391178844E+01  -0.1391178844E+01  -0.5625610967E+00  -0.5625610967E+00   0.1181649081E-10   0.0000000000E+00   0.0000000000E+00   0.1339551912E-03
   0.2001000000E+01   0.1266673724E-03   0.1266673724E-03   0.1000000000E-05   0.3031803505E-06   0.3031803505E-06   0.9990000000E-03   0.1263641921E-03   0.1263641921E-03   0.6967270925E+02   0.1386601384E+02   0.1386601384E+02   0.5622977272E+00   0.5622977272E+00  -0.6874819689E-10   0.0000000000E+00   0.0000000000E+00   0.8646754521E-03
   0.2001000000E+01   0.9998733326E+00   0.1266673724E-03   0.1000000000E-05  -0.3031803505E-06   0.3031803505E-06   0.9990000000E-03  -0.1263641921E-03   0.1263641921E-03   0.6967270925E+02   0.1386601384E+02   0.1386601384E+02  -0.5622977272E+00   0.5622977272E+00   0.3858388843E-15   0.0000000000E+00   0.0000000000E+00   0.8646754521E-03
   0.2001000000E+01   0.1266673724E-03   0.9998733326E+00   0.1000000000E-05   0.3031803505E-06  -0.3031803505E-06   0.9990000000E-03   0.1263641921E-03  -0.1263641921E-03   0.6967270925E+02   0.1386601384E+02   0.1386601384E+02   0.5622977272E+00  -0.5622977272E+00  -0.2301547845E-16   0.0000000000E+00   0.0000000000E+00   0.8646754521E-03
   0.2001000000E+01   0.9998733326E+00   0.9998733326E+00   0.1000000000E-05  -0.3031803505E-06  -0.3031803505E-06   0.9990000000E-03  -0.1263641921E-03  -0.1263641921E-03   0.6967270925E+02   0.1386601384E+02   0.1386601384E+02  -0.5622977272E+00  -0.5622977272E+00   0.6874855971E-10   0.0000000000E+00   0.0000000000E+00   0.8646754521E-03
     1     2     3     4     5     6     7     8
     2     9    10     3     6    11    12     7
 VARIABLES = X,Y,Z,DU1,DU2,DU3,U1,U2,U3,S11,S22,S33,S12,S13,S23,OMEGA,EP,E11
 ZONE, T="0.2000D-01" F=FEPOINT, I=   12 J=    2 ET=BRICK
   0.0000000000E+00   0.4485111491E-05   0.4485111491E-05   0.0000000000E+00   0.6260445896E-07   0.6260445896E-07   0.0000000000E+00   0.4422507032E-05   0.4422507032E-05   0.5806344971E+02   0.9823323510E+01   0.9823323510E+01   0.1685599084E+01   0.1685599084E+01  -0.1794355429E-10   0.0000000000E+00   0.0000000000E+00   0.7370491079E-03
   0.1000780845E+01   0.1967456915E-03   0.1967456915E-03   0.7668189510E-06   0.6079366157E-07   0.6079366157E-07   0.7800785607E-03   0.1966848979E-03   0.1966848979E-03   0.6341043117E+02  -0.9879184762E+01  -0.9879184762E+01   0.1685794477E+01   0.1685794477E+01  -0.9424624301E-10   0.0000000000E+00   0.0000000000E+00   0.9989789340E-03
   0.1000780845E+01   0.9998032543E+00   0.1967456915E-03   0.7668189509E-06  -0.6079366157E-07   0.6079366158E-07   0.7800785606E-03  -0.1966848979E-03   0.1966848979E-03   0.6341043117E+02  -0.9879184762E+01  -0.9879184762E+01  -0.1685794478E+01   0.1685794477E+01   0.1141928669E-14   0.0000000000E+00   0.0000000000E+00   0.9989789340E-03
   0.0000000000E+00   0.9999955149E+00   0.4485111492E-05   0.0000000000E+00  -0.6260445896E-07   0.6260445896E-07   0.0000000000E+00  -0.4422507034E-05   0.4422507033E-05   0.5806344971E+02   0.9823323510E+01   0.9823323510E+01  -0.1685599084E+01   0.1685599084E+01   0.1812663503E-14   0.0000000000E+00   0.0000000000E+00   0.7370491079E-03
   0.0000000000E+00   0.4485111492E-05   0.9999955149E+00   0.0000000000E+00   0.6260445896E-07  -0.6260445896E-07   0.0000000000E+00   0.4422507033E-05  -0.4422507034E-05   0.5806344971E+02   0.9823323510E+01   0.9823323510E+01   0.1685599084E+01  -0.1685599084E+01   0.1403253265E-14   0.0000000000E+00   0.0000000000E+00   0.7370491079E-03
   0.1000780845E+01   0.1967456915E-03   0.9998032543E+00   0.7668189509E-06   0.6079366158E-07  -0.6079366157E-07   0.7800785606E-03   0.1966848979E-03  -0.1966848979E-03   0.6341043117E+02  -0.9879184762E+01  -0.9879184762E+01   0.1685794477E+01  -0.1685794478E+01  -0.6435958016E-15   0.0000000000E+00   0.0000000000E+00   0.9989789340E-03
   0.1000780845E+01   0.9998032543E+00   0.9998032543E+00   0.7668189509E-06  -0.6079366157E-07  -0.6079366157E-07   0.7800785606E-03  -0.1966848979E-03  -0.1966848979E-03   0.6341043117E+02  -0.9879184762E+01  -0.9879184762E+01  -0.1685794478E+01  -0.1685794478E+01   0.9424674134E-10   0.0000000000E+00   0.0000000000E+00   0.9989789339E-03
   0.0000000000E+00   0.9999955149E+00   0.9999955149E+00   0.0000000000E+00  -0.6260445896E-07  -0.6260445896E-07   0.0000000000E+00  -0.4422507035E-05  -0.4422507035E-05   0.5806344971E+02   0.9823323510E+01   0.9823323510E+01  -0.1685599084E+01  -0.1685599084E+01   0.1794677020E-10   0.0000000000E+00   0.0000000000E+00   0.7370491078E-03
   0.2002000000E+01   0.3889871378E-03   0.3889871378E-03   0.1000000000E-05   0.5896565294E-07   0.5896565294E-07   0.1999000000E-02   0.3889281721E-03   0.3889281721E-03   0.6877327014E+02  -0.2958292937E+02  -0.2958292937E+02   0.1685989997E+01   0.1685989997E+01  -0.1706317037E-09   0.0000000000E+00   0.0000000000E+00   0.1260933141E-02
   0.2002000000E+01   0.9996110129E+00   0.3889871377E-03   0.1000000000E-05  -0.5896565293E-07   0.5896565294E-07   0.1999000000E-02  -0.3889281721E-03   0.3889281721E-03   0.6877327014E+02  -0.2958292937E+02  -0.2958292937E+02  -0.1685989997E+01   0.1685989997E+01  -0.1305485845E-14   0.0000000000E+00   0.0000000000E+00   0.1260933141E-02
   0.2002000000E+01   0.3889871377E-03   0.9996110129E+00   0.1000000000E-05   0.5896565294E-07  -0.5896565293E-07   0.1999000000E-02   0.3889281721E-03  -0.3889281721E-03   0.6877327014E+02  -0.2958292937E+02  -0.2958292937E+02   0.1685989997E+01  -0.1685989997E+01  -0.4872659129E-14   0.0000000000E+00   0.0000000000E+00   0.1260933141E-02
   0.2002000000E+01   0.9996110129E+00   0.9996110129E+00   0.1000000000E-05  -0.5896565294E-07  -0.5896565294E-07   0.1999000000E-02  -0.3889281721E-03  -0.3889281721E-03   0.6877327013E+02  -0.2958292936E+02  -0.2958292936E+02  -0.1685989997E+01  -0.1685989997E+01   0.1706255255E-09   0.0000000000E+00   0.0000000000E+00   0.1260933141E-02
     1     2     3     4     5     6     7     8
     2     9    10     3     6    11    12     7
 VARIABLES = X,Y,Z,DU1,DU2,DU3,U1,U2,U3,S11,S22,S33,S12,S13,S23,OMEGA,EP,E11
 ZONE, T="0.3000D-01" F=FEPOINT, I=   12 J=    2 ET=BRICK
   0.0000000000E+00   0.2230348271E-03   0.2230348271E-03   0.0000000000E+00   0.3717023475E-06   0.3717023475E-06   0.0000000000E+00   0.2226631247E-03   0.2226631247E-03   0.1131333059E+03   0.9752089044E+01   0.9752089044E+01  -0.5151319230E-01  -0.5151319230E-01  -0.3343668676E-10   0.0000000000E+00   0.0000000000E+00   0.1524528876E-02
   0.1001525059E+01   0.2166990680E-03   0.2166990680E-03   0.7071870281E-06   0.5146833454E-07   0.5146833454E-07   0.1524352140E-02   0.2166475996E-03   0.2166475996E-03   0.1110901722E+03   0.9451591414E+01   0.9451591414E+01  -0.5165019891E-01  -0.5165019891E-01  -0.5576833710E-11   0.0000000000E+00   0.0000000000E+00   0.1498380040E-02
   0.1001525059E+01   0.9997833009E+00   0.2166990680E-03   0.7071870281E-06  -0.5146833454E-07   0.5146833455E-07   0.1524352140E-02  -0.2166475996E-03   0.2166475996E-03   0.1110901722E+03   0.9451591414E+01   0.9451591414E+01   0.5165019810E-01  -0.5165019890E-01   0.7101801886E-14   0.0000000000E+00   0.0000000000E+00   0.1498380040E-02
   0.0000000000E+00   0.9997769652E+00   0.2230348271E-03   0.0000000000E+00  -0.3717023475E-06   0.3717023475E-06   0.0000000000E+00  -0.2226631247E-03   0.2226631247E-03   0.1131333059E+03   0.9752089044E+01   0.9752089044E+01   0.5151319205E-01  -0.5151319229E-01   0.5402040308E-14   0.0000000000E+00   0.0000000000E+00   0.1524528876E-02
   0.0000000000E+00   0.2230348271E-03   0.9997769652E+00   0.0000000000E+00   0.3717023475E-06  -0.3717023475E-06   0.0000000000E+00   0.2226631247E-03  -0.2226631247E-03   0.1131333059E+03   0.9752089044E+01   0.9752089044E+01  -0.5151319229E-01   0.5151319205E-01   0.1497863711E-14   0.0000000000E+00   0.0000000000E+00   0.1524528876E-02
   0.1001525059E+01   0.2166990680E-03   0.9997833009E+00   0.7071870281E-06   0.5146833455E-07  -0.5146833454E-07   0.1524352140E-02   0.2166475996E-03  -0.2166475996E-03   0.1110901722E+03   0.9451591414E+01   0.9451591414E+01  -0.5165019890E-01   0.5165019810E-01   0.1242055681E-14   0.0000000000E+00   0.0000000000E+00   0.1498380040E-02
   0.1001525059E+01   0.9997833009E+00   0.9997833009E+00   0.7071870281E-06  -0.5146833455E-07  -0.5146833455E-07   0.1524352140E-02  -0.2166475996E-03  -0.2166475996E-03   0.1110901722E+03   0.9451591414E+01   0.9451591414E+01   0.5165019809E-01   0.5165019809E-01   0.5585177567E-11   0.0000000000E+00   0.0000000000E+00   0.1498380040E-02
   0.0000000000E+00   0.9997769652E+00   0.9997769652E+00   0.0000000000E+00  -0.3717023475E-06  -0.3717023475E-06   0.0000000000E+00  -0.2226631247E-03  -0.2226631247E-03   0.1131333059E+03   0.9752089043E+01   0.9752089043E+01   0.5151319204E-01   0.5151319204E-01   0.3344358666E-10   0.0000000000E+00   0.0000000000E+00   0.1524528876E-02
   0.2003000000E+01   0.2103320364E-03   0.2103320364E-03   0.1000000000E-05  -0.2687901342E-06  -0.2687901342E-06   0.2999000000E-02   0.2106008265E-03   0.2106008265E-03   0.1090625625E+03   0.9157117564E+01   0.9157117564E+01  -0.5178720167E-01  -0.5178720167E-01   0.2232377393E-10   0.0000000000E+00   0.0000000000E+00   0.1472217343E-02
   0.2003000000E+01   0.9997896680E+00   0.2103320364E-03   0.1000000000E-05   0.2687901342E-06  -0.2687901342E-06   0.2999000000E-02  -0.2106008265E-03   0.2106008265E-03   0.1090625625E+03   0.9157117564E+01   0.9157117564E+01   0.5178720142E-01  -0.5178720166E-01   0.1047842610E-14   0.0000000000E+00   0.0000000000E+00   0.1472217343E-02
   0.2003000000E+01   0.2103320364E-03   0.9997896680E+00   0.1000000000E-05  -0.2687901342E-06   0.2687901342E-06   0.2999000000E-02   0.2106008265E-03  -0.2106008265E-03   0.1090625625E+03   0.9157117564E+01   0.9157117564E+01  -0.5178720166E-01   0.5178720142E-01  -0.1019723642E-13   0.0000000000E+00   0.0000000000E+00   0.1472217343E-02
   0.2003000000E+01   0.9997896680E+00   0.9997896680E+00   0.1000000000E-05   0.2687901342E-06   0.2687901342E-06   0.2999000000E-02  -0.2106008265E-03  -0.2106008265E-03   0.1090625625E+03   0.9157117563E+01   0.9157117563E+01   0.5178720141E-01   0.5178720141E-01  -0.2233292333E-10   0.0000000000E+00   0.0000000000E+00   0.1472217343E-02
     1     2     3     4     5     6     7     8
     2     9    10     3     6    11    12     7
 VARIABLES = X,Y,Z,DU1,DU2,DU3,U1,U2,U3,S11,S22,S33,S12,S13,S23,OMEGA,EP,E11
 ZONE, T="0.4000D-01" F=FEPOINT, I=   12 J=    2 ET=BRICK
   0.0000000000E+00   0.5512448345E-03   0.5512448345E-03   0.0000000000E+00   0.1491026314E-06   0.1491026314E-06   0.0000000000E+00   0.5510957319E-03   0.5510957319E-03   0.1423932030E+03  -0.2604935705E+02  -0.2604935705E+02  -0.1794052839E+01  -0.1794052839E+01  -0.5743545807E-10   0.0000000000E+00   0.0000000000E+00   0.2279462024E-02
   0.1002237087E+01   0.3463361790E-03   0.3463361790E-03   0.7142790290E-06   0.1528077744E-06   0.1528077744E-06   0.2236372658E-02   0.3461833712E-03   0.3461833712E-03   0.1363748798E+03  -0.5179506940E+01  -0.5179506940E+01  -0.1794019606E+01  -0.1794019606E+01   0.1974563874E-10   0.0000000000E+00   0.0000000000E+00   0.1997482811E-02
   0.1002237087E+01   0.9996536638E+00   0.3463361790E-03   0.7142790291E-06  -0.1528077744E-06   0.1528077744E-06   0.2236372658E-02  -0.3461833712E-03   0.3461833712E-03   0.1363748798E+03  -0.5179506940E+01  -0.5179506940E+01   0.1794019606E+01  -0.1794019606E+01   0.1371282208E-13   0.0000000000E+00   0.0000000000E+00   0.1997482811E-02
   0.0000000000E+00   0.9994487552E+00   0.5512448345E-03   0.0000000000E+00  -0.1491026315E-06   0.1491026315E-06   0.0000000000E+00  -0.5510957319E-03   0.5510957319E-03   0.1423932030E+03  -0.2604935705E+02  -0.2604935705E+02   0.1794052839E+01  -0.1794052839E+01   0.9822430888E-14   0.0000000000E+00   0.0000000000E+00   0.2279462024E-02
   0.0000000000E+00   0.5512448345E-03   0.9994487552E+00   0.0000000000E+00   0.1491026315E-06  -0.1491026315E-06   0.0000000000E+00   0.5510957319E-03  -0.5510957319E-03   0.1423932030E+03  -0.2604935705E+02  -0.2604935705E+02  -0.1794052839E+01   0.1794052839E+01   0.1676615911E-14   0.0000000000E+00   0.0000000000E+00   0.2279462024E-02
   0.1002237087E+01   0.3463361790E-03   0.9996536638E+00   0.7142790291E-06   0.1528077744E-06  -0.1528077744E-06   0.2236372658E-02   0.3461833712E-03  -0.3461833712E-03   0.1363748798E+03  -0.5179506940E+01  -0.5179506940E+01  -0.1794019606E+01   0.1794019606E+01   0.2788982846E-14   0.0000000000E+00   0.0000000000E+00   0.1997482811E-02
   0.1002237087E+01   0.9996536638E+00   0.9996536638E+00   0.7142790291E-06  -0.1528077744E-06  -0.1528077744E-06   0.2236372658E-02  -0.3461833712E-03  -0.3461833712E-03   0.1363748798E+03  -0.5179506940E+01  -0.5179506940E+01   0.1794019606E+01   0.1794019606E+01  -0.1972913694E-10   0.0000000000E+00   0.0000000000E+00   0.1997482811E-02
   0.0000000000E+00   0.9994487552E+00   0.9994487552E+00   0.0000000000E+00  -0.1491026315E-06  -0.1491026315E-06   0.0000000000E+00  -0.5510957319E-03  -0.5510957319E-03   0.1423932030E+03  -0.2604935705E+02  -0.2604935705E+02   0.1794052839E+01   0.1794052839E+01   0.5744695711E-10   0.0000000000E+00   0.0000000000E+00   0.2279462024E-02
   0.2004000000E+01   0.1413637395E-03   0.1413637395E-03   0.1000000000E-05   0.1564945513E-06   0.1564945513E-06   0.3999000000E-02   0.1412072449E-03   0.1412072449E-03   0.1303736234E+03   0.1568944027E+02   0.1568944027E+02  -0.1793986373E+01  -0.1793986373E+01   0.9699625142E-10   0.0000000000E+00   0.0000000000E+00   0.1715512625E-02
   0.2004000000E+01   0.9998586363E+00   0.1413637395E-03   0.1000000000E-05  -0.1564945513E-06   0.1564945513E-06   0.3999000000E-02  -0.1412072449E-03   0.1412072449E-03   0.1303736234E+03   0.1568944027E+02   0.1568944027E+02   0.1793986374E+01  -0.1793986373E+01   0.2300887560E-13   0.0000000000E+00   0.0000000000E+00   0.1715512625E-02
   0.2004000000E+01   0.1413637395E-03   0.9998586363E+00   0.1000000000E-05   0.1564945513E-06  -0.1564945513E-06   0.3999000000E-02   0.1412072449E-03  -0.1412072449E-03   0.1303736234E+03   0.1568944027E+02   0.1568944027E+02  -0.1793986373E+01   0.1793986374E+01  -0.6246434240E-14   0.0000000000E+00   0.0000000000E+00   0.1715512625E-02
   0.2004000000E+01   0.9998586363E+00   0.9998586363E+00   0.1000000000E-05  -0.1564945513E-06  -0.1564945513E-06   0.3999000000E-02  -0.1412072449E-03  -0.1412072449E-03   0.1303736234E+03   0.1568944027E+02   0.1568944027E+02   0.1793986373E+01   0.1793986373E+01  -0.9697948897E-10   0.0000000000E+00   0.0000000000E+00   0.1715512625E-02
     1     2     3     4     5     6     7     8
     2     9    10     3     6    11    12     7
 VARIABLES = X,Y,Z,DU1,DU2,DU3,U1,U2,U3,S11,S22,S33,S12,S13,S23,OMEGA,EP,E11
 ZONE, T="0.5000D-01" F=FEPOINT, I=   12 J=    2 ET=BRICK
   0.0000000000E+00   0.4728380533E-03   0.4728380533E-03   0.0000000000E+00  -0.1842662333E-06  -0.1842662333E-06   0.0000000000E+00   0.4730223195E-03   0.4730223195E-03   0.2022712065E+03   0.6132218122E+01   0.6132218122E+01  -0.5028956589E+00  -0.5028956589E+00   0.1530874217E-09   0.0000000000E+00   0.0000000000E+00   0.2833300081E-02
   0.1002824882E+01   0.4155954703E-03   0.4155954703E-03   0.3745035247E-06   0.9739058330E-09   0.9739058330E-09   0.2824507681E-02   0.4155944964E-03   0.4155944964E-03   0.1738808627E+03  -0.1196400273E+01  -0.1196400273E+01  -0.5032917703E+00  -0.5032917703E+00   0.6701464223E-10   0.0000000000E+00   0.0000000000E+00   0.2496336308E-02
   0.1002824882E+01   0.9995844045E+00   0.4155954703E-03   0.3745035247E-06  -0.9739058329E-09   0.9739058373E-09   0.2824507681E-02  -0.4155944964E-03   0.4155944964E-03   0.1738808627E+03  -0.1196400273E+01  -0.1196400273E+01   0.5032917716E+00  -0.5032917703E+00   0.1492780016E-13   0.0000000000E+00   0.0000000000E+00   0.2496336308E-02
   0.0000000000E+00   0.9995271619E+00   0.4728380533E-03   0.0000000000E+00   0.1842662333E-06  -0.1842662333E-06   0.0000000000E+00  -0.4730223195E-03   0.4730223195E-03   0.2022712065E+03   0.6132218122E+01   0.6132218121E+01   0.5028956601E+00  -0.5028956589E+00   0.4475236591E-14   0.0000000000E+00   0.0000000000E+00   0.2833300081E-02
   0.0000000000E+00   0.4728380533E-03   0.9995271619E+00   0.0000000000E+00  -0.1842662333E-06   0.1842662333E-06   0.0000000000E+00   0.4730223195E-03  -0.4730223195E-03   0.2022712065E+03   0.6132218121E+01   0.6132218122E+01  -0.5028956589E+00   0.5028956601E+00  -0.7784910844E-14   0.0000000000E+00   0.0000000000E+00   0.2833300081E-02
   0.1002824882E+01   0.4155954703E-03   0.9995844045E+00   0.3745035247E-06   0.9739058373E-09  -0.9739058329E-09   0.2824507681E-02   0.4155944964E-03  -0.4155944964E-03   0.1738808627E+03  -0.1196400273E+01  -0.1196400273E+01  -0.5032917703E+00   0.5032917716E+00  -0.5104924899E-14   0.0000000000E+00   0.0000000000E+00   0.2496336308E-02
   0.1002824882E+01   0.9995844045E+00   0.9995844045E+00   0.3745035247E-06  -0.9739058372E-09  -0.9739058372E-09   0.2824507681E-02  -0.4155944964E-03  -0.4155944964E-03   0.1738808627E+03  -0.1196400273E+01  -0.1196400273E+01   0.5032917716E+00   0.5032917716E+00  -0.6700481935E-10   0.0000000000E+00   0.0000000000E+00   0.2496336308E-02
   0.0000000000E+00   0.9995271619E+00   0.9995271619E+00   0.0000000000E+00   0.1842662333E-06   0.1842662333E-06   0.0000000000E+00  -0.4730223195E-03  -0.4730223195E-03   0.2022712065E+03   0.6132218121E+01   0.6132218121E+01   0.5028956601E+00   0.5028956601E+00  -0.1530907313E-09   0.0000000000E+00   0.0000000000E+00   0.2833300081E-02
   0.2005000000E+01   0.3582862476E-03   0.3582862476E-03   0.1000000000E-05   0.1862161707E-06   0.1862161707E-06   0.4999000000E-02   0.3581000314E-03   0.3581000314E-03   0.1454951876E+03  -0.8522134311E+01  -0.8522134311E+01  -0.5036878045E+00  -0.5036878045E+00  -0.1893337827E-10   0.0000000000E+00   0.0000000000E+00   0.2159345831E-02
   0.2005000000E+01   0.9996417138E+00   0.3582862476E-03   0.1000000000E-05  -0.1862161706E-06   0.1862161706E-06   0.4999000000E-02  -0.3581000314E-03   0.3581000314E-03   0.1454951876E+03  -0.8522134311E+01  -0.8522134311E+01   0.5036878058E+00  -0.5036878045E+00   0.4589603786E-13   0.0000000000E+00   0.0000000000E+00   0.2159345831E-02
   0.2005000000E+01   0.3582862476E-03   0.9996417138E+00   0.1000000000E-05   0.1862161706E-06  -0.1862161706E-06   0.4999000000E-02   0.3581000314E-03  -0.3581000314E-03   0.1454951876E+03  -0.8522134311E+01  -0.8522134311E+01  -0.5036878045E+00   0.5036878058E+00  -0.1951577003E-13   0.0000000000E+00   0.0000000000E+00   0.2159345831E-02
   0.2005000000E+01   0.9996417138E+00   0.9996417138E+00   0.1000000000E-05  -0.1862161706E-06  -0.1862161706E-06   0.4999000000E-02  -0.3581000313E-03  -0.3581000313E-03   0.1454951876E+03  -0.8522134311E+01  -0.8522134311E+01   0.5036878058E+00   0.5036878058E+00   0.1895975854E-10   0.0000000000E+00   0.0000000000E+00   0.2159345831E-02
     1     2     3     4     5     6     7     8
     2     9    10     3     6    11    12     7
 VARIABLES = X,Y,Z,DU1,DU2,DU3,U1,U2,U3,S11,S22,S33,S12,S13,S23,OMEGA,EP,E11
 ZONE, T="0.6000D-01" F=FEPOINT, I=   12 J=    2 ET=BRICK
   0.0000000000E+00   0.4450914865E-03   0.4450914865E-03   0.0000000000E+00   0.1424578809E-06   0.1424578809E-06   0.0000000000E+00   0.4449490286E-03   0.4449490286E-03   0.2129812570E+03   0.9512456323E+01   0.9512456323E+01   0.2291789751E+00   0.2291789751E+00   0.2365917221E-09   0.0000000000E+00   0.0000000000E+00   0.2954827232E-02
   0.1002965060E+01   0.4713463884E-03   0.4713463884E-03   0.5558913783E-08   0.1410806025E-06   0.1410806025E-06   0.2965054257E-02   0.4712053078E-03   0.4712053078E-03   0.2141784845E+03   0.7045349048E+01   0.7045349048E+01   0.2289534372E+00   0.2289534372E+00   0.7129236674E-10   0.0000000000E+00   0.0000000000E+00   0.2995015749E-02
   0.1002965060E+01   0.9995286536E+00   0.4713463884E-03   0.5558913780E-08  -0.1410806025E-06   0.1410806025E-06   0.2965054257E-02  -0.4712053078E-03   0.4712053078E-03   0.2141784845E+03   0.7045349048E+01   0.7045349047E+01  -0.2289534355E+00   0.2289534371E+00   0.1929139635E-13   0.0000000000E+00   0.0000000000E+00   0.2995015749E-02
   0.0000000000E+00   0.9995549085E+00   0.4450914865E-03   0.0000000000E+00  -0.1424578809E-06   0.1424578809E-06   0.0000000000E+00  -0.4449490287E-03   0.4449490287E-03   0.2129812570E+03   0.9512456323E+01   0.9512456323E+01  -0.2291789738E+00   0.2291789751E+00   0.2089423688E-13   0.0000000000E+00   0.0000000000E+00   0.2954827232E-02
   0.0000000000E+00   0.4450914865E-03   0.9995549085E+00   0.0000000000E+00   0.1424578809E-06  -0.1424578809E-06   0.0000000000E+00   0.4449490287E-03  -0.4449490287E-03   0.2129812570E+03   0.9512456323E+01   0.9512456323E+01   0.2291789751E+00  -0.2291789738E+00  -0.1142239636E-13   0.0000000000E+00   0.0000000000E+00   0.2954827232E-02
   0.1002965060E+01   0.4713463884E-03   0.9995286536E+00   0.5558913780E-08   0.1410806025E-06  -0.1410806025E-06   0.2965054257E-02   0.4712053078E-03  -0.4712053078E-03   0.2141784845E+03   0.7045349047E+01   0.7045349048E+01   0.2289534371E+00  -0.2289534355E+00  -0.2980061602E-13   0.0000000000E+00   0.0000000000E+00   0.2995015749E-02
   0.1002965060E+01   0.9995286536E+00   0.9995286536E+00   0.5558913778E-08  -0.1410806025E-06  -0.1410806025E-06   0.2965054257E-02  -0.4712053078E-03  -0.4712053078E-03   0.2141784845E+03   0.7045349047E+01   0.7045349047E+01  -0.2289534355E+00  -0.2289534355E+00  -0.7130287595E-10   0.0000000000E+00   0.0000000000E+00   0.2995015749E-02
   0.0000000000E+00   0.9995549085E+00   0.9995549085E+00   0.0000000000E+00  -0.1424578809E-06  -0.1424578809E-06   0.0000000000E+00  -0.4449490287E-03  -0.4449490287E-03   0.2129812570E+03   0.9512456322E+01   0.9512456322E+01  -0.2291789738E+00  -0.2291789738E+00  -0.2365822503E-09   0.0000000000E+00   0.0000000000E+00   0.2954827232E-02
   0.2006000000E+01   0.4975486357E-03   0.4975486357E-03   0.1000000000E-05   0.1397334329E-06   0.1397334329E-06   0.5999000000E-02   0.4974089022E-03   0.4974089022E-03   0.2153748322E+03   0.4578827480E+01   0.4578827480E+01   0.2287278752E+00   0.2287278752E+00  -0.9387165766E-10   0.0000000000E+00   0.0000000000E+00   0.3035181442E-02
   0.2006000000E+01   0.9995024514E+00   0.4975486357E-03   0.1000000000E-05  -0.1397334329E-06   0.1397334329E-06   0.5999000000E-02  -0.4974089022E-03   0.4974089022E-03   0.2153748321E+03   0.4578827480E+01   0.4578827480E+01  -0.2287278739E+00   0.2287278752E+00   0.4972811818E-13   0.0000000000E+00   0.0000000000E+00   0.3035181442E-02
   0.2006000000E+01   0.4975486357E-03   0.9995024514E+00   0.1000000000E-05   0.1397334329E-06  -0.1397334329E-06   0.5999000000E-02   0.4974089022E-03  -0.4974089022E-03   0.2153748321E+03   0.4578827480E+01   0.4578827480E+01   0.2287278752E+00  -0.2287278739E+00  -0.7223216669E-13   0.0000000000E+00   0.0000000000E+00   0.3035181442E-02
   0.2006000000E+01   0.9995024514E+00   0.9995024514E+00   0.1000000000E-05  -0.1397334329E-06  -0.1397334329E-06   0.5999000000E-02  -0.4974089022E-03  -0.4974089022E-03   0.2153748321E+03   0.4578827480E+01   0.4578827480E+01  -0.2287278739E+00  -0.2287278739E+00   0.9384915361E-10   0.0000000000E+00   0.0000000000E+00   0.3035181441E-02
     1     2     3     4     5     6     7     8
     2     9    10     3     6    11    12     7
 VARIABLES = X,Y,Z,DU1,DU2,DU3,U1,U2,U3,S11,S22,S33,S12,S13,S23,OMEGA,EP,E11
 ZONE, T="0.7000D-01" F=FEPOINT, I=   12 J=    2 ET=BRICK
   0.0000000000E+00   0.5402329121E-03   0.5402329121E-03   0.0000000000E+00  -0.5331507905E-07  -0.5331507905E-07   0.0000000000E+00   0.5402862271E-03   0.5402862271E-03   0.2056308329E+03  -0.1796983255E+02  -0.1796983255E+02   0.5954307340E+00   0.5954307340E+00   0.8123976525E-10   0.0000000000E+00   0.0000000000E+00   0.3108130646E-02
   0.1003128596E+01   0.6084801279E-03   0.6084801279E-03   0.4272068891E-06   0.6938317343E-07   0.6938317343E-07   0.3128168338E-02   0.6084107447E-03   0.6084107447E-03   0.2377992266E+03  -0.1002771150E+02  -0.1002771150E+02   0.5952364387E+00   0.5952364387E+00  -0.2944926510E-10   0.0000000000E+00   0.0000000000E+00   0.3493323959E-02
   0.1003128596E+01   0.9993915199E+00   0.6084801279E-03   0.4272068890E-06  -0.6938317343E-07   0.6938317343E-07   0.3128168338E-02  -0.6084107447E-03   0.6084107447E-03   0.2377992266E+03  -0.1002771150E+02  -0.1002771150E+02  -0.5952364388E+00   0.5952364387E+00   0.4059583895E-13   0.0000000000E+00   0.0000000000E+00   0.3493323959E-02
   0.0000000000E+00   0.9994597671E+00   0.5402329121E-03   0.0000000000E+00   0.5331507909E-07  -0.5331507906E-07   0.0000000000E+00  -0.5402862271E-03   0.5402862271E-03   0.2056308329E+03  -0.1796983255E+02  -0.1796983255E+02  -0.5954307340E+00   0.5954307340E+00   0.7776704681E-13   0.0000000000E+00   0.0000000000E+00   0.3108130646E-02
   0.0000000000E+00   0.5402329121E-03   0.9994597671E+00   0.0000000000E+00  -0.5331507906E-07   0.5331507909E-07   0.0000000000E+00   0.5402862271E-03  -0.5402862271E-03   0.2056308329E+03  -0.1796983255E+02  -0.1796983255E+02   0.5954307340E+00  -0.5954307340E+00   0.5587907540E-14   0.0000000000E+00   0.0000000000E+00   0.3108130646E-02
   0.1003128596E+01   0.6084801279E-03   0.9993915199E+00   0.4272068890E-06   0.6938317343E-07  -0.6938317343E-07   0.3128168338E-02   0.6084107447E-03  -0.6084107447E-03   0.2377992266E+03  -0.1002771150E+02  -0.1002771150E+02   0.5952364387E+00  -0.5952364388E+00  -0.5374504542E-13   0.0000000000E+00   0.0000000000E+00   0.3493323959E-02
   0.1003128596E+01   0.9993915199E+00   0.9993915199E+00   0.4272068890E-06  -0.6938317342E-07  -0.6938317342E-07   0.3128168338E-02  -0.6084107447E-03  -0.6084107447E-03   0.2377992266E+03  -0.1002771150E+02  -0.1002771150E+02  -0.5952364387E+00  -0.5952364387E+00   0.2943611589E-10   0.0000000000E+00   0.0000000000E+00   0.3493323959E-02
   0.0000000000E+00   0.9994597671E+00   0.9994597671E+00   0.0000000000E+00   0.5331507910E-07   0.5331507910E-07   0.0000000000E+00  -0.5402862271E-03  -0.5402862271E-03   0.2056308328E+03  -0.1796983255E+02  -0.1796983255E+02  -0.5954307340E+00  -0.5954307340E+00  -0.8115641029E-10   0.0000000000E+00   0.0000000000E+00   0.3108130646E-02
   0.2007000000E+01   0.6767146232E-03   0.6767146232E-03   0.1000000000E-05   0.1921237444E-06   0.1921237444E-06   0.6999000000E-02   0.6765224995E-03   0.6765224995E-03   0.2699708790E+03  -0.2084333623E+01  -0.2084333623E+01   0.5950421127E+00   0.5950421127E+00  -0.1400102238E-09   0.0000000000E+00   0.0000000000E+00   0.3878515728E-02
   0.2007000000E+01   0.9993232854E+00   0.6767146232E-03   0.1000000000E-05  -0.1921237445E-06   0.1921237444E-06   0.6999000000E-02  -0.6765224995E-03   0.6765224995E-03   0.2699708790E+03  -0.2084333623E+01  -0.2084333623E+01  -0.5950421127E+00   0.5950421127E+00   0.2414909340E-13   0.0000000000E+00   0.0000000000E+00   0.3878515727E-02
   0.2007000000E+01   0.6767146232E-03   0.9993232854E+00   0.1000000000E-05   0.1921237444E-06  -0.1921237445E-06   0.6999000000E-02   0.6765224995E-03  -0.6765224995E-03   0.2699708790E+03  -0.2084333623E+01  -0.2084333623E+01   0.5950421127E+00  -0.5950421127E+00  -0.1417291628E-12   0.0000000000E+00   0.0000000000E+00   0.3878515727E-02
   0.2007000000E+01   0.9993232854E+00   0.9993232854E+00   0.1000000000E-05  -0.1921237445E-06  -0.1921237445E-06   0.6999000000E-02  -0.6765224995E-03  -0.6765224995E-03   0.2699708790E+03  -0.2084333623E+01  -0.2084333623E+01  -0.5950421127E+00  -0.5950421127E+00   0.1398926437E-09   0.0000000000E+00   0.0000000000E+00   0.3878515727E-02
     1     2     3     4     5     6     7     8
     2     9    10     3     6    11    12     7
 VARIABLES = X,Y,Z,DU1,DU2,DU3,U1,U2,U3,S11,S22,S33,S12,S13,S23,OMEGA,EP,E11
 ZONE, T="0.8000D-01" F=FEPOINT, I=   12 J=    2 ET=BRICK
   0.0000000000E+00   0.4530484589E-03   0.4530484589E-03   0.0000000000E+00   0.4775450813E-07   0.4775450813E-07   0.0000000000E+00   0.4530007044E-03   0.4530007044E-03   0.2802290553E+03   0.2706606256E+02   0.2706606256E+02   0.1540745946E+01   0.1540745946E+01  -0.9283560859E-11   0.0000000000E+00   0.0000000000E+00   0.3752160648E-02
   0.1003799401E+01   0.6294280894E-03   0.6294280894E-03   0.8115097902E-06   0.4355736097E-07   0.4355736097E-07   0.3798589012E-02   0.6293845320E-03   0.6293845320E-03   0.2850711515E+03   0.8914555932E+01   0.8914555932E+01   0.1541065382E+01   0.1541065382E+01  -0.3594348109E-10   0.0000000000E+00   0.0000000000E+00   0.3991501136E-02
   0.1003799401E+01   0.9993705719E+00   0.6294280894E-03   0.8115097902E-06  -0.4355736097E-07   0.4355736097E-07   0.3798589012E-02  -0.6293845320E-03   0.6293845320E-03   0.2850711515E+03   0.8914555932E+01   0.8914555932E+01  -0.1541065384E+01   0.1541065382E+01   0.6522296881E-13   0.0000000000E+00   0.0000000000E+00   0.3991501136E-02
   0.0000000000E+00   0.9995469515E+00   0.4530484589E-03   0.0000000000E+00  -0.4775450810E-07   0.4775450811E-07   0.0000000000E+00  -0.4530007043E-03   0.4530007044E-03   0.2802290552E+03   0.2706606256E+02   0.2706606256E+02  -0.1540745948E+01   0.1540745946E+01   0.1444850907E-12   0.0000000000E+00   0.0000000000E+00   0.3752160648E-02
   0.0000000000E+00   0.4530484589E-03   0.9995469515E+00   0.0000000000E+00   0.4775450811E-07  -0.4775450810E-07   0.0000000000E+00   0.4530007044E-03  -0.4530007043E-03   0.2802290552E+03   0.2706606256E+02   0.2706606256E+02   0.1540745946E+01  -0.1540745948E+01   0.3376612245E-13   0.0000000000E+00   0.0000000000E+00   0.3752160648E-02
   0.1003799401E+01   0.6294280894E-03   0.9993705719E+00   0.8115097902E-06   0.4355736097E-07  -0.4355736097E-07   0.3798589012E-02   0.6293845320E-03  -0.6293845320E-03   0.2850711515E+03   0.8914555932E+01   0.8914555932E+01   0.1541065382E+01  -0.1541065384E+01  -0.5378371394E-13   0.0000000000E+00   0.0000000000E+00   0.3991501136E-02
   0.1003799401E+01   0.9993705719E+00   0.9993705719E+00   0.8115097901E-06  -0.4355736097E-07  -0.4355736097E-07   0.3798589012E-02  -0.6293845320E-03  -0.6293845320E-03   0.2850711515E+03   0.8914555931E+01   0.8914555931E+01  -0.1541065384E+01  -0.1541065384E+01   0.3595492034E-10   0.0000000000E+00   0.0000000000E+00   0.3991501136E-02
   0.0000000000E+00   0.9995469515E+00   0.9995469515E+00   0.0000000000E+00  -0.4775450809E-07  -0.4775450809E-07   0.0000000000E+00  -0.4530007043E-03  -0.4530007043E-03   0.2802290552E+03   0.2706606256E+02   0.2706606256E+02  -0.1540745948E+01  -0.1540745948E+01   0.9461812071E-11   0.0000000000E+00   0.0000000000E+00   0.3752160648E-02
   0.2008000000E+01   0.8058267035E-03   0.8058267035E-03   0.1000000000E-05   0.3938554114E-07   0.3938554114E-07   0.7999000000E-02   0.8057873179E-03   0.8057873179E-03   0.2899275595E+03  -0.9238416503E+01  -0.9238416503E+01   0.1541385024E+01   0.1541385024E+01  -0.6259129559E-10   0.0000000000E+00   0.0000000000E+00   0.4230877787E-02
   0.2008000000E+01   0.9991941733E+00   0.8058267034E-03   0.1000000000E-05  -0.3938554116E-07   0.3938554115E-07   0.7999000000E-02  -0.8057873179E-03   0.8057873179E-03   0.2899275595E+03  -0.9238416503E+01  -0.9238416502E+01  -0.1541385026E+01   0.1541385024E+01  -0.2198724406E-13   0.0000000000E+00   0.0000000000E+00   0.4230877787E-02
   0.2008000000E+01   0.8058267034E-03   0.9991941733E+00   0.1000000000E-05   0.3938554115E-07  -0.3938554116E-07   0.7999000000E-02   0.8057873179E-03  -0.8057873179E-03   0.2899275595E+03  -0.9238416502E+01  -0.9238416503E+01   0.1541385024E+01  -0.1541385026E+01  -0.1667388799E-12   0.0000000000E+00   0.0000000000E+00   0.4230877787E-02
   0.2008000000E+01   0.9991941733E+00   0.9991941733E+00   0.1000000000E-05  -0.3938554117E-07  -0.3938554117E-07   0.7999000000E-02  -0.8057873179E-03  -0.8057873179E-03   0.2899275595E+03  -0.9238416502E+01  -0.9238416502E+01  -0.1541385026E+01  -0.1541385026E+01   0.6240256946E-10   0.0000000000E+00   0.0000000000E+00   0.4230877787E-02
     1     2     3     4     5     6     7     8
     2     9    10     3     6    11    12     7
 VARIABLES = X,Y,Z,DU1,DU2,DU3,U1,U2,U3,S11,S22,S33,S12,S13,S23,OMEGA,EP,E11
 ZONE, T="0.9000D-01" F=FEPOINT, I=   12 J=    2 ET=BRICK
   0.0000000000E+00   0.7702639441E-03   0.7702639441E-03   0.0000000000E+00   0.4702828129E-06   0.4702828129E-06   0.0000000000E+00   0.7697936613E-03   0.7697936613E-03   0.3170623225E+03  -0.3217454426E+01  -0.3217454426E+01  -0.1395906258E+00  -0.1395906258E+00  -0.2295286004E-09   0.0000000000E+00   0.0000000000E+00   0.4562767048E-02
   0.1004570310E+01   0.7539045718E-03   0.7539045718E-03   0.7046543534E-06   0.1559566523E-06   0.1559566523E-06   0.4569604924E-02   0.7537486151E-03   0.7537486151E-03   0.3112653821E+03  -0.4207843513E+01  -0.4207843513E+01  -0.1394447644E+00  -0.1394447644E+00  -0.7882096166E-10   0.0000000000E+00   0.0000000000E+00   0.4489401262E-02
   0.1004570310E+01   0.9992460954E+00   0.7539045718E-03   0.7046543535E-06  -0.1559566523E-06   0.1559566523E-06   0.4569604924E-02  -0.7537486151E-03   0.7537486151E-03   0.3112653821E+03  -0.4207843513E+01  -0.4207843513E+01   0.1394447621E+00  -0.1394447643E+00   0.7255264431E-13   0.0000000000E+00   0.0000000000E+00   0.4489401261E-02
   0.0000000000E+00   0.9992297361E+00   0.7702639441E-03   0.0000000000E+00  -0.4702828129E-06   0.4702828129E-06   0.0000000000E+00  -0.7697936613E-03   0.7697936613E-03   0.3170623225E+03  -0.3217454426E+01  -0.3217454425E+01   0.1395906242E+00  -0.1395906257E+00   0.1970083151E-12   0.0000000000E+00   0.0000000000E+00   0.4562767048E-02
   0.0000000000E+00   0.7702639441E-03   0.9992297361E+00   0.0000000000E+00   0.4702828129E-06  -0.4702828129E-06   0.0000000000E+00   0.7697936613E-03  -0.7697936613E-03   0.3170623225E+03  -0.3217454425E+01  -0.3217454426E+01  -0.1395906257E+00   0.1395906242E+00   0.4471225300E-13   0.0000000000E+00   0.0000000000E+00   0.4562767048E-02
   0.1004570310E+01   0.7539045718E-03   0.9992460954E+00   0.7046543535E-06   0.1559566523E-06  -0.1559566523E-06   0.4569604924E-02   0.7537486151E-03  -0.7537486151E-03   0.3112653821E+03  -0.4207843513E+01  -0.4207843513E+01  -0.1394447643E+00   0.1394447621E+00  -0.4164049652E-13   0.0000000000E+00   0.0000000000E+00   0.4489401261E-02
   0.1004570310E+01   0.9992460954E+00   0.9992460954E+00   0.7046543535E-06  -0.1559566523E-06  -0.1559566523E-06   0.4569604924E-02  -0.7537486151E-03  -0.7537486151E-03   0.3112653821E+03  -0.4207843513E+01  -0.4207843513E+01   0.1394447621E+00   0.1394447621E+00   0.7885187381E-10   0.0000000000E+00   0.0000000000E+00   0.4489401261E-02
   0.0000000000E+00   0.9992297361E+00   0.9992297361E+00   0.0000000000E+00  -0.4702828129E-06  -0.4702828129E-06   0.0000000000E+00  -0.7697936612E-03  -0.7697936612E-03   0.3170623225E+03  -0.3217454425E+01  -0.3217454425E+01   0.1395906241E+00   0.1395906241E+00   0.2297703210E-09   0.0000000000E+00   0.0000000000E+00   0.4562767048E-02
   0.2009000000E+01   0.7375795346E-03   0.7375795346E-03   0.1000000000E-05  -0.1583829879E-06  -0.1583829879E-06   0.8999000000E-02   0.7377379176E-03   0.7377379176E-03   0.3054850411E+03  -0.5193187720E+01  -0.5193187720E+01  -0.1392989117E+00  -0.1392989117E+00   0.7192637652E-10   0.0000000000E+00   0.0000000000E+00   0.4416050993E-02
   0.2009000000E+01   0.9992624205E+00   0.7375795346E-03   0.1000000000E-05   0.1583829879E-06  -0.1583829879E-06   0.8999000000E-02  -0.7377379176E-03   0.7377379176E-03   0.3054850411E+03  -0.5193187720E+01  -0.5193187720E+01   0.1392989100E+00  -0.1392989116E+00  -0.8759065521E-13   0.0000000000E+00   0.0000000000E+00   0.4416050993E-02
   0.2009000000E+01   0.7375795346E-03   0.9992624205E+00   0.1000000000E-05  -0.1583829879E-06   0.1583829879E-06   0.8999000000E-02   0.7377379176E-03  -0.7377379176E-03   0.3054850411E+03  -0.5193187720E+01  -0.5193187720E+01  -0.1392989116E+00   0.1392989100E+00  -0.1345313770E-12   0.0000000000E+00   0.0000000000E+00   0.4416050993E-02
   0.2009000000E+01   0.9992624205E+00   0.9992624205E+00   0.1000000000E-05   0.1583829879E-06   0.1583829879E-06   0.8999000000E-02  -0.7377379176E-03  -0.7377379176E-03   0.3054850411E+03  -0.5193187720E+01  -0.5193187720E+01   0.1392989100E+00   0.1392989100E+00  -0.7214849854E-10   0.0000000000E+00   0.0000000000E+00   0.4416050993E-02
     1     2     3     4     5     6     7     8
     2     9    10     3     6    11    12     7
 VARIABLES = X,Y,Z,DU1,DU2,DU3,U1,U2,U3,S11,S22,S33,S12,S13,S23,OMEGA,EP,E11
 ZONE, T="0.1000D+00" F=FEPOINT, I=   12 J=    2 ET=BRICK
   0.0000000000E+00   0.1092001935E-02   0.1092001935E-02   0.0000000000E+00   0.1353831921E-06   0.1353831921E-06   0.0000000000E+00   0.1091866552E-02   0.1091866552E-02   0.3158364643E+03  -0.1343678787E+02  -0.1343678787E+02  -0.1932861079E+01  -0.1932861079E+01  -0.2370011754E-09   0.8158354667E-03   0.6982057223E-03   0.5338570479E-02
   0.1005298628E+01   0.8461283777E-03   0.8461283777E-03   0.8120589068E-06   0.4696720121E-07   0.4696720121E-07   0.5297816081E-02   0.8460814105E-03   0.8460814105E-03   0.3264042452E+03   0.1281772768E+00   0.1281772768E+00  -0.1989160604E+01  -0.1989160604E+01  -0.4301833023E-10   0.3733673664E-03   0.3203781855E-03   0.4985685356E-02
   0.1005298628E+01   0.9991538716E+00   0.8461283777E-03   0.8120589069E-06  -0.4696720121E-07   0.4696720122E-07   0.5297816081E-02  -0.8460814104E-03   0.8460814105E-03   0.3264042452E+03   0.1281772768E+00   0.1281772769E+00   0.1989160605E+01  -0.1989160604E+01   0.8317309406E-14   0.3733673663E-03   0.3203781855E-03   0.4985685356E-02
   0.0000000000E+00   0.9989079981E+00   0.1092001935E-02   0.0000000000E+00  -0.1353831922E-06   0.1353831921E-06   0.0000000000E+00  -0.1091866552E-02   0.1091866552E-02   0.3158364643E+03  -0.1343678787E+02  -0.1343678787E+02   0.1932861079E+01  -0.1932861078E+01   0.1406760328E-12   0.8158354666E-03   0.6982057222E-03   0.5338570479E-02
   0.0000000000E+00   0.1092001935E-02   0.9989079981E+00   0.0000000000E+00   0.1353831921E-06  -0.1353831922E-06   0.0000000000E+00   0.1091866552E-02  -0.1091866552E-02   0.3158364643E+03  -0.1343678787E+02  -0.1343678787E+02  -0.1932861078E+01   0.1932861079E+01   0.4140522134E-13   0.8158354666E-03   0.6982057222E-03   0.5338570479E-02
   0.1005298628E+01   0.8461283777E-03   0.9991538716E+00   0.8120589069E-06   0.4696720122E-07  -0.4696720121E-07   0.5297816081E-02   0.8460814105E-03  -0.8460814104E-03   0.3264042452E+03   0.1281772769E+00   0.1281772768E+00  -0.1989160604E+01   0.1989160605E+01  -0.1693267282E-13   0.3733673663E-03   0.3203781855E-03   0.4985685356E-02
   0.1005298628E+01   0.9991538716E+00   0.9991538716E+00   0.8120589069E-06  -0.4696720122E-07  -0.4696720122E-07   0.5297816081E-02  -0.8460814104E-03  -0.8460814104E-03   0.3264042452E+03   0.1281772768E+00   0.1281772768E+00   0.1989160605E+01   0.1989160605E+01   0.4300971486E-10   0.3733673663E-03   0.3203781854E-03   0.4985685355E-02
   0.0000000000E+00   0.9989079981E+00   0.9989079981E+00   0.0000000000E+00  -0.1353831922E-06  -0.1353831922E-06   0.0000000000E+00  -0.1091866552E-02  -0.1091866552E-02   0.3158364643E+03  -0.1343678787E+02  -0.1343678787E+02   0.1932861079E+01   0.1932861079E+01   0.2371832566E-09   0.8158354666E-03   0.6982057222E-03   0.5338570478E-02
   0.2010000000E+01   0.6120967492E-03   0.6120967492E-03   0.1000000000E-05  -0.1085961455E-07  -0.1085961455E-07   0.9999000000E-02   0.6121076088E-03   0.6121076088E-03   0.3335749320E+03   0.1540109987E+02   0.1540109987E+02  -0.2036238496E+01  -0.2036238496E+01   0.1655229218E-09   0.1435821466E-04   0.1278059965E-04   0.4638109969E-02
   0.2010000000E+01   0.9993879033E+00   0.6120967492E-03   0.1000000000E-05   0.1085961459E-07  -0.1085961455E-07   0.9999000000E-02  -0.6121076088E-03   0.6121076088E-03   0.3335749320E+03   0.1540109987E+02   0.1540109987E+02   0.2036238496E+01  -0.2036238496E+01  -0.1845767415E-12   0.1435821466E-04   0.1278059965E-04   0.4638109969E-02
   0.2010000000E+01   0.6120967492E-03   0.9993879033E+00   0.1000000000E-05  -0.1085961455E-07   0.1085961459E-07   0.9999000000E-02   0.6121076088E-03  -0.6121076088E-03   0.3335749320E+03   0.1540109987E+02   0.1540109987E+02  -0.2036238496E+01   0.2036238496E+01  -0.5456755408E-13   0.1435821466E-04   0.1278059965E-04   0.4638109969E-02
   0.2010000000E+01   0.9993879033E+00   0.9993879033E+00   0.1000000000E-05   0.1085961459E-07   0.1085961459E-07   0.9999000000E-02  -0.6121076088E-03  -0.6121076088E-03   0.3335749320E+03   0.1540109987E+02   0.1540109987E+02   0.2036238496E+01   0.2036238496E+01  -0.1657620660E-09   0.1435821466E-04   0.1278059965E-04   0.4638109969E-02
     1     2     3     4     5     6     7     8
     2     9    10     3     6    11    12     7
 VARIABLES = X,Y,Z,DU1,DU2,DU3,U1,U2,U3,S11,S22,S33,S12,S13,S23,OMEGA,EP,E11
 ZONE, T="0.1100D+00" F=FEPOINT, I=   12 J=    2 ET=BRICK
   0.0000000000E+00   0.1192296286E-02   0.1192296286E-02   0.0000000000E+00   0.1767310895E-06   0.1767310895E-06   0.0000000000E+00   0.1192119555E-02   0.1192119555E-02   0.3480884758E+03   0.1724069177E+02   0.1724069177E+02  -0.1704890218E+01  -0.1704890218E+01  -0.4390364804E-10   0.1574076771E-02   0.1367438038E-02   0.6181330489E-02
   0.1006144360E+01   0.9383628944E-03   0.9383628944E-03   0.7940951404E-06   0.1557657689E-06   0.1557657689E-06   0.6143565409E-02   0.9382071287E-03   0.9382071287E-03   0.3340409238E+03   0.5177706623E+01   0.5177706623E+01  -0.1684272123E+01  -0.1684272123E+01   0.1175193247E-10   0.8611622196E-03   0.7510655262E-03   0.5478272997E-02
   0.1006144360E+01   0.9990616371E+00   0.9383628944E-03   0.7940951405E-06  -0.1557657689E-06   0.1557657689E-06   0.6143565409E-02  -0.9382071286E-03   0.9382071287E-03   0.3340409238E+03   0.5177706622E+01   0.5177706622E+01   0.1684272126E+01  -0.1684272123E+01  -0.3772398361E-13   0.8611622196E-03   0.7510655262E-03   0.5478272996E-02
   0.0000000000E+00   0.9988077037E+00   0.1192296286E-02   0.0000000000E+00  -0.1767310895E-06   0.1767310895E-06   0.0000000000E+00  -0.1192119555E-02   0.1192119555E-02   0.3480884758E+03   0.1724069177E+02   0.1724069177E+02   0.1704890220E+01  -0.1704890218E+01   0.5291637485E-13   0.1574076771E-02   0.1367438038E-02   0.6181330489E-02
   0.0000000000E+00   0.1192296286E-02   0.9988077037E+00   0.0000000000E+00   0.1767310895E-06  -0.1767310895E-06   0.0000000000E+00   0.1192119555E-02  -0.1192119555E-02   0.3480884758E+03   0.1724069177E+02   0.1724069177E+02  -0.1704890218E+01   0.1704890220E+01   0.5991330723E-13   0.1574076771E-02   0.1367438038E-02   0.6181330489E-02
   0.1006144360E+01   0.9383628944E-03   0.9990616371E+00   0.7940951405E-06   0.1557657689E-06  -0.1557657689E-06   0.6143565409E-02   0.9382071287E-03  -0.9382071286E-03   0.3340409238E+03   0.5177706622E+01   0.5177706622E+01  -0.1684272123E+01   0.1684272126E+01   0.2907825247E-13   0.8611622196E-03   0.7510655262E-03   0.5478272996E-02
   0.1006144360E+01   0.9990616371E+00   0.9990616371E+00   0.7940951405E-06  -0.1557657689E-06  -0.1557657689E-06   0.6143565409E-02  -0.9382071286E-03  -0.9382071286E-03   0.3340409237E+03   0.5177706622E+01   0.5177706622E+01   0.1684272126E+01   0.1684272126E+01  -0.1176057820E-10   0.8611622196E-03   0.7510655262E-03   0.5478272996E-02
   0.0000000000E+00   0.9988077037E+00   0.9988077037E+00   0.0000000000E+00  -0.1767310896E-06  -0.1767310896E-06   0.0000000000E+00  -0.1192119555E-02  -0.1192119555E-02   0.3480884757E+03   0.1724069177E+02   0.1724069177E+02   0.1704890220E+01   0.1704890220E+01   0.4401647772E-10   0.1574076771E-02   0.1367438038E-02   0.6181330489E-02
   0.2011000000E+01   0.7379680682E-03   0.7379680682E-03   0.1000000000E-05   0.1804572213E-06   0.1804572213E-06   0.1099900000E-01   0.7377876110E-03   0.7377876110E-03   0.3197925043E+03  -0.6766524315E+01  -0.6766524315E+01  -0.1678041111E+01  -0.1678041111E+01   0.7635739086E-10   0.1851553540E-03   0.1630788281E-03   0.4799081510E-02
   0.2011000000E+01   0.9992620319E+00   0.7379680682E-03   0.1000000000E-05  -0.1804572213E-06   0.1804572213E-06   0.1099900000E-01  -0.7377876109E-03   0.7377876110E-03   0.3197925042E+03  -0.6766524315E+01  -0.6766524315E+01   0.1678041113E+01  -0.1678041111E+01  -0.2019384010E-12   0.1851553540E-03   0.1630788281E-03   0.4799081510E-02
   0.2011000000E+01   0.7379680682E-03   0.9992620319E+00   0.1000000000E-05   0.1804572213E-06  -0.1804572213E-06   0.1099900000E-01   0.7377876110E-03  -0.7377876109E-03   0.3197925042E+03  -0.6766524315E+01  -0.6766524315E+01  -0.1678041111E+01   0.1678041113E+01   0.3079929522E-13   0.1851553540E-03   0.1630788281E-03   0.4799081510E-02
   0.2011000000E+01   0.9992620319E+00   0.9992620319E+00   0.1000000000E-05  -0.1804572212E-06  -0.1804572212E-06   0.1099900000E-01  -0.7377876109E-03  -0.7377876109E-03   0.3197925042E+03  -0.6766524315E+01  -0.6766524315E+01   0.1678041113E+01   0.1678041113E+01  -0.7652852996E-10   0.1851553540E-03   0.1630788280E-03   0.4799081510E-02
     1     2     3     4     5     6     7     8
     2     9    10     3     6    11    12     7
 VARIABLES = X,Y,Z,DU1,DU2,DU3,U1,U2,U3,S11,S22,S33,S12,S13,S23,OMEGA,EP,E11
 ZONE, T="0.1200D+00" F=FEPOINT, I=   12 J=    2 ET=BRICK
   0.0000000000E+00   0.1492789181E-02   0.1492789181E-02   0.0000000000E+00   0.3477243136E-06   0.3477243136E-06   0.0000000000E+00   0.1492441457E-02   0.1492441457E-02   0.3295733660E+03  -0.2649246323E+01  -0.2649246323E+01  -0.2606181779E+01  -0.2606181779E+01   0.4937326975E-10   0.2408789155E-02   0.2110842013E-02   0.6845828883E-02
   0.1006780621E+01   0.1095063296E-02   0.1095063296E-02   0.5063109610E-06   0.1118127482E-06   0.1118127482E-06   0.6780114946E-02   0.1094951483E-02   0.1094951483E-02   0.3230576704E+03  -0.7332460567E+01  -0.7332460567E+01  -0.2499528159E+01  -0.2499528159E+01   0.1721524997E-10   0.1466796351E-02   0.1283027452E-02   0.5970444128E-02
   0.1006780621E+01   0.9989049367E+00   0.1095063296E-02   0.5063109609E-06  -0.1118127482E-06   0.1118127482E-06   0.6780114946E-02  -0.1094951483E-02   0.1094951483E-02   0.3230576703E+03  -0.7332460567E+01  -0.7332460567E+01   0.2499528160E+01  -0.2499528158E+01  -0.3485562658E-13   0.1466796351E-02   0.1283027452E-02   0.5970444128E-02
   0.0000000000E+00   0.9985072108E+00   0.1492789181E-02   0.0000000000E+00  -0.3477243136E-06   0.3477243136E-06   0.0000000000E+00  -0.1492441457E-02   0.1492441457E-02   0.3295733660E+03  -0.2649246322E+01  -0.2649246323E+01   0.2606181780E+01  -0.2606181779E+01  -0.4275998603E-13   0.2408789155E-02   0.2110842013E-02   0.6845828882E-02
   0.0000000000E+00   0.1492789181E-02   0.9985072108E+00   0.0000000000E+00   0.3477243136E-06  -0.3477243136E-06   0.0000000000E+00   0.1492441457E-02  -0.1492441457E-02   0.3295733660E+03  -0.2649246323E+01  -0.2649246322E+01  -0.2606181779E+01   0.2606181780E+01   0.4700455693E-13   0.2408789155E-02   0.2110842013E-02   0.6845828882E-02
   0.1006780621E+01   0.1095063296E-02   0.9989049367E+00   0.5063109609E-06   0.1118127482E-06  -0.1118127482E-06   0.6780114946E-02   0.1094951483E-02  -0.1094951483E-02   0.3230576703E+03  -0.7332460567E+01  -0.7332460567E+01  -0.2499528158E+01   0.2499528160E+01   0.6145342854E-13   0.1466796351E-02   0.1283027452E-02   0.5970444128E-02
   0.1006780621E+01   0.9989049367E+00   0.9989049367E+00   0.5063109609E-06  -0.1118127482E-06  -0.1118127482E-06   0.6780114946E-02  -0.1094951483E-02  -0.1094951483E-02   0.3230576703E+03  -0.7332460567E+01  -0.7332460567E+01   0.2499528160E+01   0.2499528160E+01  -0.1718865217E-10   0.1466796351E-02   0.1283027452E-02   0.5970444127E-02
   0.0000000000E+00   0.9985072108E+00   0.9985072108E+00   0.0000000000E+00  -0.3477243136E-06  -0.3477243136E-06   0.0000000000E+00  -0.1492441457E-02  -0.1492441457E-02   0.3295733660E+03  -0.2649246322E+01  -0.2649246322E+01   0.2606181779E+01   0.2606181779E+01  -0.4936902518E-10   0.2408789155E-02   0.2110842013E-02   0.6845828882E-02
   0.2012000000E+01   0.7946297179E-03   0.7946297179E-03   0.1000000000E-05  -0.8373878687E-07  -0.8373878687E-07   0.1199900000E-01   0.7947134567E-03   0.7947134567E-03   0.3164104148E+03  -0.1191609576E+02  -0.1191609576E+02  -0.2398057100E+01  -0.2398057100E+01  -0.1938614953E-10   0.5808779911E-03   0.5022969395E-03   0.5138488109E-02
   0.2012000000E+01   0.9992053703E+00   0.7946297179E-03   0.1000000000E-05   0.8373878684E-07  -0.8373878687E-07   0.1199900000E-01  -0.7947134567E-03   0.7947134567E-03   0.3164104148E+03  -0.1191609576E+02  -0.1191609576E+02   0.2398057101E+01  -0.2398057100E+01  -0.1062881847E-12   0.5808779910E-03   0.5022969394E-03   0.5138488109E-02
   0.2012000000E+01   0.7946297179E-03   0.9992053703E+00   0.1000000000E-05  -0.8373878687E-07   0.8373878684E-07   0.1199900000E-01   0.7947134567E-03  -0.7947134567E-03   0.3164104148E+03  -0.1191609576E+02  -0.1191609576E+02  -0.2398057100E+01   0.2398057101E+01   0.9503279228E-13   0.5808779910E-03   0.5022969394E-03   0.5138488109E-02
   0.2012000000E+01   0.9992053703E+00   0.9992053703E+00   0.1000000000E-05   0.8373878684E-07   0.8373878684E-07   0.1199900000E-01  -0.7947134566E-03  -0.7947134566E-03   0.3164104147E+03  -0.1191609576E+02  -0.1191609576E+02   0.2398057101E+01   0.2398057101E+01   0.1937489413E-10   0.5808779910E-03   0.5022969394E-03   0.5138488109E-02
     1     2     3     4     5     6     7     8
     2     9    10     3     6    11    12     7
 VARIABLES = X,Y,Z,DU1,DU2,DU3,U1,U2,U3,S11,S22,S33,S12,S13,S23,OMEGA,EP,E11
 ZONE, T="0.1300D+00" F=FEPOINT, I=   12 J=    2 ET=BRICK
   0.0000000000E+00   0.1721482800E-02   0.1721482800E-02   0.0000000000E+00   0.9044715989E-07   0.9044715989E-07   0.0000000000E+00   0.1721392352E-02   0.1721392352E-02   0.3256141038E+03  -0.7449209449E+01  -0.7449209449E+01  -0.3564311486E+01  -0.3564311486E+01   0.1540866388E-09   0.3077065456E-02   0.2689234040E-02   0.7411851570E-02
   0.1007314659E+01   0.1163433887E-02   0.1163433887E-02   0.6241594709E-06   0.7162303606E-07   0.7162303606E-07   0.7314034347E-02   0.1163362264E-02   0.1163362264E-02   0.3364512593E+03   0.5220837841E+01   0.5220837841E+01  -0.3430712961E+01  -0.3430712961E+01   0.6689685906E-10   0.1947310969E-02   0.1702242114E-02   0.6463401291E-02
   0.1007314659E+01   0.9988365661E+00   0.1163433887E-02   0.6241594708E-06  -0.7162303605E-07   0.7162303606E-07   0.7314034347E-02  -0.1163362264E-02   0.1163362264E-02   0.3364512593E+03   0.5220837841E+01   0.5220837841E+01   0.3430712961E+01  -0.3430712961E+01  -0.6157089661E-14   0.1947310969E-02   0.1702242114E-02   0.6463401290E-02
   0.0000000000E+00   0.9982785172E+00   0.1721482800E-02   0.0000000000E+00  -0.9044715985E-07   0.9044715990E-07   0.0000000000E+00  -0.1721392352E-02   0.1721392352E-02   0.3256141037E+03  -0.7449209449E+01  -0.7449209449E+01   0.3564311486E+01  -0.3564311486E+01  -0.1164931531E-12   0.3077065456E-02   0.2689234040E-02   0.7411851569E-02
   0.0000000000E+00   0.1721482800E-02   0.9982785172E+00   0.0000000000E+00   0.9044715990E-07  -0.9044715985E-07   0.0000000000E+00   0.1721392352E-02  -0.1721392352E-02   0.3256141037E+03  -0.7449209449E+01  -0.7449209449E+01  -0.3564311486E+01   0.3564311486E+01  -0.1017653208E-13   0.3077065456E-02   0.2689234040E-02   0.7411851569E-02
   0.1007314659E+01   0.1163433887E-02   0.9988365661E+00   0.6241594708E-06   0.7162303606E-07  -0.7162303605E-07   0.7314034347E-02   0.1163362264E-02  -0.1163362264E-02   0.3364512593E+03   0.5220837841E+01   0.5220837841E+01  -0.3430712961E+01   0.3430712961E+01   0.4993967858E-13   0.1947310969E-02   0.1702242114E-02   0.6463401290E-02
   0.1007314659E+01   0.9988365661E+00   0.9988365661E+00   0.6241594708E-06  -0.7162303605E-07  -0.7162303605E-07   0.7314034347E-02  -0.1163362264E-02  -0.1163362264E-02   0.3364512593E+03   0.5220837841E+01   0.5220837841E+01   0.3430712961E+01   0.3430712961E+01  -0.6685307647E-10   0.1947310969E-02   0.1702242114E-02   0.6463401290E-02
   0.0000000000E+00   0.9982785172E+00   0.9982785172E+00   0.0000000000E+00  -0.9044715986E-07  -0.9044715986E-07   0.0000000000E+00  -0.1721392352E-02  -0.1721392352E-02   0.3256141037E+03  -0.7449209449E+01  -0.7449209449E+01   0.3564311486E+01   0.3564311486E+01  -0.1542133085E-09   0.3077065456E-02   0.2689234039E-02   0.7411851569E-02
   0.2013000000E+01   0.7377708572E-03   0.7377708572E-03   0.1000000000E-05   0.8202037128E-07   0.8202037128E-07   0.1299900000E-01   0.7376888368E-03   0.7376888368E-03   0.3472014065E+03   0.1797330945E+02   0.1797330945E+02  -0.3291399943E+01  -0.3291399943E+01  -0.3347988208E-10   0.8920538628E-03   0.7775209883E-03   0.5574133383E-02
   0.2013000000E+01   0.9992622291E+00   0.7377708572E-03   0.1000000000E-05  -0.8202037131E-07   0.8202037127E-07   0.1299900000E-01  -0.7376888368E-03   0.7376888368E-03   0.3472014065E+03   0.1797330945E+02   0.1797330945E+02   0.3291399942E+01  -0.3291399943E+01   0.3650493995E-13   0.8920538628E-03   0.7775209882E-03   0.5574133383E-02
   0.2013000000E+01   0.7377708572E-03   0.9992622291E+00   0.1000000000E-05   0.8202037127E-07  -0.8202037131E-07   0.1299900000E-01   0.7376888368E-03  -0.7376888368E-03   0.3472014065E+03   0.1797330945E+02   0.1797330945E+02  -0.3291399943E+01   0.3291399942E+01   0.1049617778E-12   0.8920538628E-03   0.7775209882E-03   0.5574133383E-02
   0.2013000000E+01   0.9992622291E+00   0.9992622291E+00   0.1000000000E-05  -0.8202037131E-07  -0.8202037131E-07   0.1299900000E-01  -0.7376888368E-03  -0.7376888368E-03   0.3472014065E+03   0.1797330945E+02   0.1797330945E+02   0.3291399942E+01   0.3291399942E+01   0.3362134879E-10   0.8920538628E-03   0.7775209882E-03   0.5574133383E-02
     1     2     3     4     5     6     7     8
     2     9    10     3     6    11    12     7
 VARIABLES = X,Y,Z,DU1,DU2,DU3,U1,U2,U3,S11,S22,S33,S12,S13,S23,OMEGA,EP,E11
 ZONE, T="0.1400D+00" F=FEPOINT, I=   12 J=    2 ET=BRICK
   0.0000000000E+00   0.1778738514E-02   0.1778738514E-02   0.0000000000E+00   0.9563703445E-07   0.9563703445E-07   0.0000000000E+00   0.1778642877E-02   0.1778642877E-02   0.3453614988E+03   0.1140841030E+02   0.1140841030E+02  -0.2480336092E+01  -0.2480336092E+01   0.2185265258E-09   0.3694142905E-02   0.3233602155E-02   0.8061901451E-02
   0.1007987408E+01   0.1299688512E-02   0.1299688512E-02   0.6353470484E-06   0.1814092155E-06   0.1814092155E-06   0.7986772190E-02   0.1299507103E-02   0.1299507103E-02   0.3322304816E+03  -0.1828386924E-01  -0.1828386924E-01  -0.2295543376E+01  -0.2295543376E+01   0.2870342848E-10   0.2519505655E-02   0.2207659679E-02   0.6957437642E-02
   0.1007987408E+01   0.9987003115E+00   0.1299688512E-02   0.6353470484E-06  -0.1814092155E-06   0.1814092155E-06   0.7986772190E-02  -0.1299507103E-02   0.1299507103E-02   0.3322304816E+03  -0.1828386922E-01  -0.1828386927E-01   0.2295543374E+01  -0.2295543376E+01   0.1657424970E-13   0.2519505655E-02   0.2207659679E-02   0.6957437642E-02
   0.0000000000E+00   0.9982212615E+00   0.1778738514E-02   0.0000000000E+00  -0.9563703444E-07   0.9563703446E-07   0.0000000000E+00  -0.1778642876E-02   0.1778642877E-02   0.3453614987E+03   0.1140841030E+02   0.1140841030E+02   0.2480336090E+01  -0.2480336092E+01  -0.1444918704E-12   0.3694142904E-02   0.3233602155E-02   0.8061901450E-02
   0.0000000000E+00   0.1778738514E-02   0.9982212615E+00   0.0000000000E+00   0.9563703446E-07  -0.9563703444E-07   0.0000000000E+00   0.1778642877E-02  -0.1778642876E-02   0.3453614987E+03   0.1140841030E+02   0.1140841030E+02  -0.2480336092E+01   0.2480336090E+01  -0.7766337973E-13   0.3694142904E-02   0.3233602155E-02   0.8061901450E-02
   0.1007987408E+01   0.1299688512E-02   0.9987003115E+00   0.6353470484E-06   0.1814092155E-06  -0.1814092155E-06   0.7986772190E-02   0.1299507103E-02  -0.1299507103E-02   0.3322304816E+03  -0.1828386927E-01  -0.1828386922E-01  -0.2295543376E+01   0.2295543374E+01  -0.7138234209E-15   0.2519505655E-02   0.2207659679E-02   0.6957437642E-02
   0.1007987408E+01   0.9987003115E+00   0.9987003115E+00   0.6353470484E-06  -0.1814092155E-06  -0.1814092155E-06   0.7986772190E-02  -0.1299507103E-02  -0.1299507103E-02   0.3322304816E+03  -0.1828386925E-01  -0.1828386925E-01   0.2295543374E+01   0.2295543374E+01  -0.2868756806E-10   0.2519505655E-02   0.2207659679E-02   0.6957437641E-02
   0.0000000000E+00   0.9982212615E+00   0.9982212615E+00   0.0000000000E+00  -0.9563703444E-07  -0.9563703444E-07   0.0000000000E+00  -0.1778642876E-02  -0.1778642876E-02   0.3453614987E+03   0.1140841030E+02   0.1140841030E+02   0.2480336090E+01   0.2480336090E+01  -0.2187486810E-09   0.3694142904E-02   0.3233602155E-02   0.8061901450E-02
   0.2014000000E+01   0.9750412469E-03   0.9750412469E-03   0.1000000000E-05   0.2813421399E-06   0.2813421399E-06   0.1399900000E-01   0.9747599048E-03   0.9747599048E-03   0.3191037008E+03  -0.1140350422E+02  -0.1140350422E+02  -0.2105450662E+01  -0.2105450662E+01  -0.1711491597E-09   0.1428667295E-02   0.1252187341E-02   0.5921919495E-02
   0.2014000000E+01   0.9990249588E+00   0.9750412469E-03   0.1000000000E-05  -0.2813421399E-06   0.2813421399E-06   0.1399900000E-01  -0.9747599048E-03   0.9747599048E-03   0.3191037008E+03  -0.1140350422E+02  -0.1140350422E+02   0.2105450660E+01  -0.2105450662E+01   0.1346854552E-12   0.1428667295E-02   0.1252187341E-02   0.5921919495E-02
   0.2014000000E+01   0.9750412469E-03   0.9990249588E+00   0.1000000000E-05   0.2813421399E-06  -0.2813421399E-06   0.1399900000E-01   0.9747599048E-03  -0.9747599048E-03   0.3191037008E+03  -0.1140350422E+02  -0.1140350422E+02  -0.2105450662E+01   0.2105450660E+01   0.5075748331E-13   0.1428667295E-02   0.1252187341E-02   0.5921919495E-02
   0.2014000000E+01   0.9990249588E+00   0.9990249588E+00   0.1000000000E-05  -0.2813421399E-06  -0.2813421399E-06   0.1399900000E-01  -0.9747599048E-03  -0.9747599048E-03   0.3191037008E+03  -0.1140350422E+02  -0.1140350422E+02   0.2105450660E+01   0.2105450660E+01   0.1713346027E-09   0.1428667295E-02   0.1252187341E-02   0.5921919494E-02
     1     2     3     4     5     6     7     8
     2     9    10     3     6    11    12     7
 VARIABLES = X,Y,Z,DU1,DU2,DU3,U1,U2,U3,S11,S22,S33,S12,S13,S23,OMEGA,EP,E11
 ZONE, T="0.1500D+00" F=FEPOINT, I=   12 J=    2 ET=BRICK
   0.0000000000E+00   0.1950740951E-02   0.1950740951E-02   0.0000000000E+00   0.2102010364E-06   0.2102010364E-06   0.0000000000E+00   0.1950530749E-02   0.1950530749E-02   0.3357527811E+03   0.9915483191E+00   0.9915483191E+00  -0.2475923614E+01  -0.2475923614E+01   0.1191991928E-09   0.4284886021E-02   0.3758157493E-02   0.8546478386E-02
   0.1008468446E+01   0.1439468727E-02   0.1439468727E-02   0.3467005382E-06   0.7945358624E-07   0.7945358624E-07   0.8468099786E-02   0.1439389273E-02   0.1439389273E-02   0.3280596129E+03  -0.5156840456E+01  -0.5156840456E+01  -0.2297116672E+01  -0.2297116672E+01  -0.2251065050E-10   0.3102736433E-02   0.2715009111E-02   0.7453231984E-02
   0.1008468446E+01   0.9985605313E+00   0.1439468727E-02   0.3467005382E-06  -0.7945358624E-07   0.7945358624E-07   0.8468099786E-02  -0.1439389273E-02   0.1439389273E-02   0.3280596129E+03  -0.5156840456E+01  -0.5156840456E+01   0.2297116671E+01  -0.2297116672E+01   0.3024521694E-13   0.3102736433E-02   0.2715009111E-02   0.7453231984E-02
   0.0000000000E+00   0.9980492590E+00   0.1950740951E-02   0.0000000000E+00  -0.2102010364E-06   0.2102010364E-06   0.0000000000E+00  -0.1950530749E-02   0.1950530750E-02   0.3357527811E+03   0.9915483192E+00   0.9915483190E+00   0.2475923612E+01  -0.2475923613E+01  -0.1144439485E-12   0.4284886021E-02   0.3758157493E-02   0.8546478386E-02
   0.0000000000E+00   0.1950740951E-02   0.9980492590E+00   0.0000000000E+00   0.2102010364E-06  -0.2102010364E-06   0.0000000000E+00   0.1950530750E-02  -0.1950530749E-02   0.3357527811E+03   0.9915483190E+00   0.9915483192E+00  -0.2475923613E+01   0.2475923612E+01  -0.1064848967E-12   0.4284886021E-02   0.3758157493E-02   0.8546478386E-02
   0.1008468446E+01   0.1439468727E-02   0.9985605313E+00   0.3467005382E-06   0.7945358624E-07  -0.7945358624E-07   0.8468099786E-02   0.1439389273E-02  -0.1439389273E-02   0.3280596129E+03  -0.5156840456E+01  -0.5156840456E+01  -0.2297116672E+01   0.2297116671E+01  -0.3895659318E-13   0.3102736433E-02   0.2715009111E-02   0.7453231984E-02
   0.1008468446E+01   0.9985605313E+00   0.9985605313E+00   0.3467005383E-06  -0.7945358624E-07  -0.7945358624E-07   0.8468099786E-02  -0.1439389273E-02  -0.1439389273E-02   0.3280596129E+03  -0.5156840455E+01  -0.5156840455E+01   0.2297116671E+01   0.2297116671E+01   0.2250193913E-10   0.3102736433E-02   0.2715009111E-02   0.7453231984E-02
   0.0000000000E+00   0.9980492590E+00   0.9980492590E+00   0.0000000000E+00  -0.2102010364E-06  -0.2102010364E-06   0.0000000000E+00  -0.1950530749E-02  -0.1950530749E-02   0.3357527811E+03   0.9915483190E+00   0.9915483190E+00   0.2475923612E+01   0.2475923612E+01  -0.1194201216E-09   0.4284886021E-02   0.3758157493E-02   0.8546478385E-02
   0.2015000000E+01   0.1088151874E-02   0.1088151874E-02   0.1000000000E-05  -0.5426324208E-07  -0.5426324208E-07   0.1499900000E-01   0.1088206137E-02   0.1088206137E-02   0.3203860098E+03  -0.1126899537E+02  -0.1126899537E+02  -0.2111555216E+01  -0.2111555216E+01  -0.1664867403E-09   0.2006538357E-02   0.1744627983E-02   0.6431455391E-02
   0.2015000000E+01   0.9989118481E+00   0.1088151874E-02   0.1000000000E-05   0.5426324210E-07  -0.5426324207E-07   0.1499900000E-01  -0.1088206137E-02   0.1088206137E-02   0.3203860098E+03  -0.1126899537E+02  -0.1126899537E+02   0.2111555215E+01  -0.2111555216E+01   0.1579558435E-12   0.2006538357E-02   0.1744627983E-02   0.6431455391E-02
   0.2015000000E+01   0.1088151874E-02   0.9989118481E+00   0.1000000000E-05  -0.5426324207E-07   0.5426324210E-07   0.1499900000E-01   0.1088206137E-02  -0.1088206137E-02   0.3203860098E+03  -0.1126899537E+02  -0.1126899537E+02  -0.2111555216E+01   0.2111555215E+01  -0.6391750415E-14   0.2006538357E-02   0.1744627983E-02   0.6431455391E-02
   0.2015000000E+01   0.9989118481E+00   0.9989118481E+00   0.1000000000E-05   0.5426324208E-07   0.5426324208E-07   0.1499900000E-01  -0.1088206137E-02  -0.1088206137E-02   0.3203860098E+03  -0.1126899537E+02  -0.1126899537E+02   0.2111555215E+01   0.2111555215E+01   0.1666383044E-09   0.2006538357E-02   0.1744627983E-02   0.6431455390E-02
     1     2     3     4     5     6     7     8
     2     9    10     3     6    11    12     7
 VARIABLES = X,Y,Z,DU1,DU2,DU3,U1,U2,U3,S11,S22,S33,S12,S13,S23,OMEGA,EP,E11
 ZONE, T="0.1600D+00" F=FEPOINT, I=   12 J=    2 ET=BRICK
   0.0000000000E+00   0.2101463035E-02   0.2101463035E-02   0.0000000000E+00   0.6591459117E-07   0.6591459117E-07   0.0000000000E+00   0.2101397120E-02   0.2101397120E-02   0.3290363738E+03  -0.5958064250E+01  -0.5958064250E+01  -0.2819309909E+01  -0.2819309909E+01  -0.2461948991E-11   0.4755965253E-02   0.4169126746E-02   0.8926191056E-02
   0.1008835683E+01   0.1520021078E-02   0.1520021078E-02   0.4576499396E-06   0.1273166312E-06   0.1273166312E-06   0.8835224945E-02   0.1519893761E-02   0.1519893761E-02   0.3410338538E+03   0.7259345764E+01   0.7259345764E+01  -0.2690843351E+01  -0.2690843351E+01  -0.1870290033E-10   0.3589001367E-02   0.3143450298E-02   0.7950692817E-02
   0.1008835683E+01   0.9984799789E+00   0.1520021078E-02   0.4576499396E-06  -0.1273166312E-06   0.1273166312E-06   0.8835224945E-02  -0.1519893761E-02   0.1519893761E-02   0.3410338538E+03   0.7259345764E+01   0.7259345764E+01   0.2690843351E+01  -0.2690843351E+01   0.3532277246E-13   0.3589001367E-02   0.3143450297E-02   0.7950692816E-02
   0.0000000000E+00   0.9978985370E+00   0.2101463035E-02   0.0000000000E+00  -0.6591459119E-07   0.6591459116E-07   0.0000000000E+00  -0.2101397120E-02   0.2101397120E-02   0.3290363738E+03  -0.5958064250E+01  -0.5958064250E+01   0.2819309909E+01  -0.2819309909E+01  -0.3252402270E-13   0.4755965253E-02   0.4169126746E-02   0.8926191055E-02
   0.0000000000E+00   0.2101463035E-02   0.9978985370E+00   0.0000000000E+00   0.6591459116E-07  -0.6591459119E-07   0.0000000000E+00   0.2101397120E-02  -0.2101397120E-02   0.3290363738E+03  -0.5958064250E+01  -0.5958064250E+01  -0.2819309909E+01   0.2819309909E+01  -0.6888236605E-13   0.4755965253E-02   0.4169126746E-02   0.8926191055E-02
   0.1008835683E+01   0.1520021078E-02   0.9984799789E+00   0.4576499396E-06   0.1273166312E-06  -0.1273166312E-06   0.8835224945E-02   0.1519893761E-02  -0.1519893761E-02   0.3410338538E+03   0.7259345764E+01   0.7259345764E+01  -0.2690843351E+01   0.2690843351E+01  -0.3720610375E-13   0.3589001367E-02   0.3143450297E-02   0.7950692816E-02
   0.1008835683E+01   0.9984799789E+00   0.9984799789E+00   0.4576499396E-06  -0.1273166312E-06  -0.1273166312E-06   0.8835224945E-02  -0.1519893761E-02  -0.1519893761E-02   0.3410338538E+03   0.7259345764E+01   0.7259345764E+01   0.2690843351E+01   0.2690843351E+01   0.1870101699E-10   0.3589001367E-02   0.3143450297E-02   0.7950692816E-02
   0.0000000000E+00   0.9978985370E+00   0.9978985370E+00   0.0000000000E+00  -0.6591459118E-07  -0.6591459118E-07   0.0000000000E+00  -0.2101397120E-02  -0.2101397120E-02   0.3290363737E+03  -0.5958064250E+01  -0.5958064250E+01   0.2819309909E+01   0.2819309909E+01   0.2360542601E-11   0.4755965253E-02   0.4169126746E-02   0.8926191055E-02
   0.2016000000E+01   0.1087840327E-02   0.1087840327E-02   0.1000000000E-05   0.1709406411E-06   0.1709406411E-06   0.1599900000E-01   0.1087669386E-02   0.1087669386E-02   0.3530205431E+03   0.2052523955E+02   0.2052523955E+02  -0.2554877512E+01  -0.2554877512E+01  -0.2611147578E-10   0.2503405482E-02   0.2186341400E-02   0.7041977884E-02
   0.2016000000E+01   0.9989121597E+00   0.1087840327E-02   0.1000000000E-05  -0.1709406410E-06   0.1709406411E-06   0.1599900000E-01  -0.1087669386E-02   0.1087669386E-02   0.3530205431E+03   0.2052523955E+02   0.2052523955E+02   0.2554877512E+01  -0.2554877512E+01   0.1181474732E-12   0.2503405482E-02   0.2186341400E-02   0.7041977884E-02
   0.2016000000E+01   0.1087840327E-02   0.9989121597E+00   0.1000000000E-05   0.1709406411E-06  -0.1709406410E-06   0.1599900000E-01   0.1087669386E-02  -0.1087669386E-02   0.3530205431E+03   0.2052523955E+02   0.2052523955E+02  -0.2554877512E+01   0.2554877512E+01  -0.2169191552E-13   0.2503405482E-02   0.2186341400E-02   0.7041977884E-02
   0.2016000000E+01   0.9989121597E+00   0.9989121597E+00   0.1000000000E-05  -0.1709406410E-06  -0.1709406410E-06   0.1599900000E-01  -0.1087669386E-02  -0.1087669386E-02   0.3530205431E+03   0.2052523955E+02   0.2052523955E+02   0.2554877512E+01   0.2554877512E+01   0.2620793134E-10   0.2503405482E-02   0.2186341400E-02   0.7041977883E-02
     1     2     3     4     5     6     7     8
     2     9    10     3     6    11    12     7
 VARIABLES = X,Y,Z,DU1,DU2,DU3,U1,U2,U3,S11,S22,S33,S12,S13,S23,OMEGA,EP,E11
 ZONE, T="0.1700D+00" F=FEPOINT, I=   12 J=    2 ET=BRICK
   0.0000000000E+00   0.2110644263E-02   0.2110644263E-02   0.0000000000E+00  -0.5202428228E-08  -0.5202428228E-08   0.0000000000E+00   0.2110649466E-02   0.2110649466E-02   0.3401196306E+03   0.4355060531E+01   0.4355060531E+01  -0.1184744193E+01  -0.1184744193E+01  -0.6985096741E-10   0.5238135026E-02   0.4591517529E-02   0.9410864942E-02
   0.1009361802E+01   0.1693544004E-02   0.1693544004E-02   0.5133769610E-06   0.1735385795E-06   0.1735385795E-06   0.9361288497E-02   0.1693370466E-02   0.1693370466E-02   0.3294595057E+03  -0.5114561022E+01  -0.5114561022E+01  -0.1113658594E+01  -0.1113658594E+01  -0.5763425494E-10   0.4211674688E-02   0.3691591474E-02   0.8449184620E-02
   0.1009361802E+01   0.9983064560E+00   0.1693544004E-02   0.5133769610E-06  -0.1735385795E-06   0.1735385795E-06   0.9361288497E-02  -0.1693370466E-02   0.1693370466E-02   0.3294595057E+03  -0.5114561022E+01  -0.5114561021E+01   0.1113658595E+01  -0.1113658594E+01   0.2431477265E-13   0.4211674688E-02   0.3691591474E-02   0.8449184619E-02
   0.0000000000E+00   0.9978893557E+00   0.2110644263E-02   0.0000000000E+00   0.5202428219E-08  -0.5202428231E-08   0.0000000000E+00  -0.2110649466E-02   0.2110649466E-02   0.3401196306E+03   0.4355060531E+01   0.4355060531E+01   0.1184744194E+01  -0.1184744193E+01   0.3710740752E-13   0.5238135026E-02   0.4591517529E-02   0.9410864942E-02
   0.0000000000E+00   0.2110644263E-02   0.9978893557E+00   0.0000000000E+00  -0.5202428231E-08   0.5202428219E-08   0.0000000000E+00   0.2110649466E-02  -0.2110649466E-02   0.3401196306E+03   0.4355060531E+01   0.4355060531E+01  -0.1184744193E+01   0.1184744194E+01  -0.5715395060E-14   0.5238135026E-02   0.4591517529E-02   0.9410864942E-02
   0.1009361802E+01   0.1693544004E-02   0.9983064560E+00   0.5133769610E-06   0.1735385795E-06  -0.1735385795E-06   0.9361288497E-02   0.1693370466E-02  -0.1693370466E-02   0.3294595057E+03  -0.5114561021E+01  -0.5114561022E+01  -0.1113658594E+01   0.1113658595E+01  -0.3098149409E-14   0.4211674688E-02   0.3691591474E-02   0.8449184619E-02
   0.1009361802E+01   0.9983064560E+00   0.9983064560E+00   0.5133769610E-06  -0.1735385795E-06  -0.1735385795E-06   0.9361288497E-02  -0.1693370466E-02  -0.1693370466E-02   0.3294595057E+03  -0.5114561021E+01  -0.5114561021E+01   0.1113658595E+01   0.1113658595E+01   0.5765547156E-10   0.4211674688E-02   0.3691591474E-02   0.8449184619E-02
   0.0000000000E+00   0.9978893557E+00   0.9978893557E+00   0.0000000000E+00   0.5202428222E-08   0.5202428222E-08   0.0000000000E+00  -0.2110649466E-02  -0.2110649466E-02   0.3401196306E+03   0.4355060530E+01   0.4355060530E+01   0.1184744194E+01   0.1184744194E+01   0.6988235941E-10   0.5238135025E-02   0.4591517529E-02   0.9410864941E-02
   0.2017000000E+01   0.1402284165E-02   0.1402284165E-02   0.1000000000E-05   0.3241760315E-06   0.3241760315E-06   0.1699900000E-01   0.1401959989E-02   0.1401959989E-02   0.3188667271E+03  -0.1457912687E+02  -0.1457912687E+02  -0.1042627509E+01  -0.1042627509E+01  -0.2611820087E-10   0.3252323256E-02   0.2848012044E-02   0.7543751902E-02
   0.2017000000E+01   0.9985977158E+00   0.1402284165E-02   0.1000000000E-05  -0.3241760315E-06   0.3241760315E-06   0.1699900000E-01  -0.1401959989E-02   0.1401959989E-02   0.3188667271E+03  -0.1457912687E+02  -0.1457912687E+02   0.1042627510E+01  -0.1042627509E+01   0.1926178617E-13   0.3252323256E-02   0.2848012044E-02   0.7543751901E-02
   0.2017000000E+01   0.1402284165E-02   0.9985977158E+00   0.1000000000E-05   0.3241760315E-06  -0.3241760315E-06   0.1699900000E-01   0.1401959989E-02  -0.1401959989E-02   0.3188667271E+03  -0.1457912687E+02  -0.1457912687E+02  -0.1042627509E+01   0.1042627510E+01  -0.9897724613E-14   0.3252323256E-02   0.2848012044E-02   0.7543751901E-02
   0.2017000000E+01   0.9985977158E+00   0.9985977158E+00   0.1000000000E-05  -0.3241760315E-06  -0.3241760315E-06   0.1699900000E-01  -0.1401959989E-02  -0.1401959989E-02   0.3188667271E+03  -0.1457912687E+02  -0.1457912687E+02   0.1042627510E+01   0.1042627510E+01   0.2612756493E-10   0.3252323256E-02   0.2848012044E-02   0.7543751901E-02
     1     2     3     4     5     6     7     8
     2     9    10     3     6    11    12     7
 VARIABLES = X,Y,Z,DU1,DU2,DU3,U1,U2,U3,S11,S22,S33,S12,S13,S23,OMEGA,EP,E11
 ZONE, T="0.1800D+00" F=FEPOINT, I=   12 J=    2 ET=BRICK
   0.0000000000E+00   0.2167098387E-02   0.2167098387E-02   0.0000000000E+00   0.1283166393E-06   0.1283166393E-06   0.0000000000E+00   0.2166970070E-02   0.2166970070E-02   0.3426759090E+03   0.6619787557E+01   0.6619787557E+01  -0.6427641447E+00  -0.6427641447E+00  -0.9773829275E-10   0.5626419902E-02   0.4935851706E-02   0.9770702253E-02
   0.1009737314E+01   0.1805295926E-02   0.1805295926E-02   0.2487425821E-06   0.6863482849E-07   0.6863482849E-07   0.9737064777E-02   0.1805227291E-02   0.1805227291E-02   0.3351339619E+03  -0.3255609293E-01  -0.3255609293E-01  -0.6844531410E+00  -0.6844531410E+00  -0.1962983688E-10   0.4749260591E-02   0.4157259580E-02   0.8948306141E-02
   0.1009737314E+01   0.9981947041E+00   0.1805295926E-02   0.2487425821E-06  -0.6863482848E-07   0.6863482849E-07   0.9737064777E-02  -0.1805227291E-02   0.1805227291E-02   0.3351339619E+03  -0.3255609295E-01  -0.3255609291E-01   0.6844531422E+00  -0.6844531410E+00  -0.3273638174E-15   0.4749260591E-02   0.4157259580E-02   0.8948306141E-02
   0.0000000000E+00   0.9978329016E+00   0.2167098387E-02   0.0000000000E+00  -0.1283166393E-06   0.1283166393E-06   0.0000000000E+00  -0.2166970070E-02   0.2166970070E-02   0.3426759089E+03   0.6619787557E+01   0.6619787557E+01   0.6427641453E+00  -0.6427641447E+00   0.6631107412E-13   0.5626419902E-02   0.4935851706E-02   0.9770702253E-02
   0.0000000000E+00   0.2167098387E-02   0.9978329016E+00   0.0000000000E+00   0.1283166393E-06  -0.1283166393E-06   0.0000000000E+00   0.2166970070E-02  -0.2166970070E-02   0.3426759089E+03   0.6619787557E+01   0.6619787557E+01  -0.6427641447E+00   0.6427641453E+00   0.4792677625E-13   0.5626419902E-02   0.4935851706E-02   0.9770702253E-02
   0.1009737314E+01   0.1805295926E-02   0.9981947041E+00   0.2487425821E-06   0.6863482849E-07  -0.6863482848E-07   0.9737064777E-02   0.1805227291E-02  -0.1805227291E-02   0.3351339619E+03  -0.3255609291E-01  -0.3255609295E-01  -0.6844531410E+00   0.6844531422E+00   0.3241871552E-13   0.4749260591E-02   0.4157259580E-02   0.8948306141E-02
   0.1009737314E+01   0.9981947041E+00   0.9981947041E+00   0.2487425821E-06  -0.6863482849E-07  -0.6863482849E-07   0.9737064777E-02  -0.1805227291E-02  -0.1805227291E-02   0.3351339619E+03  -0.3255609292E-01  -0.3255609292E-01   0.6844531422E+00   0.6844531422E+00   0.1966192823E-10   0.4749260591E-02   0.4157259580E-02   0.8948306141E-02
   0.0000000000E+00   0.9978329016E+00   0.9978329016E+00   0.0000000000E+00  -0.1283166393E-06  -0.1283166393E-06   0.0000000000E+00  -0.2166970070E-02  -0.2166970070E-02   0.3426759089E+03   0.6619787557E+01   0.6619787557E+01   0.6427641453E+00   0.6427641453E+00   0.9785253059E-10   0.5626419901E-02   0.4935851706E-02   0.9770702252E-02
   0.2018000000E+01   0.1539168830E-02   0.1539168830E-02   0.1000000000E-05  -0.2170824667E-07  -0.2170824667E-07   0.1799900000E-01   0.1539190538E-02   0.1539190538E-02   0.3276157097E+03  -0.6666818628E+01  -0.6666818628E+01  -0.7273840738E+00  -0.7273840738E+00   0.8319509014E-10   0.3925203616E-02   0.3422091982E-02   0.8168690450E-02
   0.2018000000E+01   0.9984608312E+00   0.1539168830E-02   0.1000000000E-05   0.2170824665E-07  -0.2170824665E-07   0.1799900000E-01  -0.1539190538E-02   0.1539190538E-02   0.3276157097E+03  -0.6666818628E+01  -0.6666818628E+01   0.7273840745E+00  -0.7273840737E+00  -0.1056965916E-12   0.3925203615E-02   0.3422091982E-02   0.8168690450E-02
   0.2018000000E+01   0.1539168830E-02   0.9984608312E+00   0.1000000000E-05  -0.2170824665E-07   0.2170824665E-07   0.1799900000E-01   0.1539190538E-02  -0.1539190538E-02   0.3276157097E+03  -0.6666818628E+01  -0.6666818628E+01  -0.7273840737E+00   0.7273840745E+00  -0.7535274492E-14   0.3925203615E-02   0.3422091982E-02   0.8168690450E-02
   0.2018000000E+01   0.9984608312E+00   0.9984608312E+00   0.1000000000E-05   0.2170824664E-07   0.2170824664E-07   0.1799900000E-01  -0.1539190538E-02  -0.1539190538E-02   0.3276157097E+03  -0.6666818628E+01  -0.6666818628E+01   0.7273840744E+00   0.7273840744E+00  -0.8330832200E-10   0.3925203615E-02   0.3422091982E-02   0.8168690449E-02
     1     2     3     4     5     6     7     8
     2     9    10     3     6    11    12     7
 VARIABLES = X,Y,Z,DU1,DU2,DU3,U1,U2,U3,S11,S22,S33,S12,S13,S23,OMEGA,EP,E11
 ZONE, T="0.1900D+00" F=FEPOINT, I=   12 J=    2 ET=BRICK
   0.0000000000E+00   0.2303389314E-02   0.2303389314E-02   0.0000000000E+00   0.8693735345E-07   0.8693735345E-07   0.0000000000E+00   0.2303302376E-02   0.2303302376E-02   0.3271164336E+03  -0.9167012227E+01  -0.9167012227E+01  -0.7952121065E+00  -0.7952121065E+00  -0.1041687409E-09   0.6023464201E-02   0.5283548369E-02   0.1004377534E-01
   0.1010007471E+01   0.1916419056E-02   0.1916419056E-02   0.3668865322E-06   0.1722699045E-06   0.1722699045E-06   0.1000710444E-01   0.1916246786E-02   0.1916246786E-02   0.3408246952E+03   0.5145541435E+01   0.5145541435E+01  -0.9234554334E+00  -0.9234554334E+00   0.2290841416E-10   0.5275145781E-02   0.4623169224E-02   0.9447005460E-02
   0.1010007471E+01   0.9980835809E+00   0.1916419056E-02   0.3668865322E-06  -0.1722699045E-06   0.1722699045E-06   0.1000710444E-01  -0.1916246786E-02   0.1916246786E-02   0.3408246951E+03   0.5145541435E+01   0.5145541435E+01   0.9234554330E+00  -0.9234554334E+00  -0.3152879012E-13   0.5275145781E-02   0.4623169224E-02   0.9447005459E-02
   0.0000000000E+00   0.9976966107E+00   0.2303389314E-02   0.0000000000E+00  -0.8693735343E-07   0.8693735345E-07   0.0000000000E+00  -0.2303302376E-02   0.2303302376E-02   0.3271164336E+03  -0.9167012226E+01  -0.9167012226E+01   0.7952121060E+00  -0.7952121064E+00   0.5283136164E-13   0.6023464201E-02   0.5283548368E-02   0.1004377534E-01
   0.0000000000E+00   0.2303389314E-02   0.9976966107E+00   0.0000000000E+00   0.8693735345E-07  -0.8693735343E-07   0.0000000000E+00   0.2303302376E-02  -0.2303302376E-02   0.3271164336E+03  -0.9167012226E+01  -0.9167012226E+01  -0.7952121064E+00   0.7952121060E+00   0.6045447726E-13   0.6023464201E-02   0.5283548368E-02   0.1004377534E-01
   0.1010007471E+01   0.1916419056E-02   0.9980835809E+00   0.3668865322E-06   0.1722699045E-06  -0.1722699045E-06   0.1000710444E-01   0.1916246786E-02  -0.1916246786E-02   0.3408246951E+03   0.5145541435E+01   0.5145541435E+01  -0.9234554334E+00   0.9234554330E+00   0.3043153450E-13   0.5275145781E-02   0.4623169224E-02   0.9447005459E-02
   0.1010007471E+01   0.9980835809E+00   0.9980835809E+00   0.3668865321E-06  -0.1722699045E-06  -0.1722699045E-06   0.1000710444E-01  -0.1916246786E-02  -0.1916246786E-02   0.3408246951E+03   0.5145541434E+01   0.5145541434E+01   0.9234554329E+00   0.9234554329E+00  -0.2290951141E-10   0.5275145781E-02   0.4623169224E-02   0.9447005459E-02
   0.0000000000E+00   0.9976966107E+00   0.9976966107E+00   0.0000000000E+00  -0.8693735343E-07  -0.8693735343E-07   0.0000000000E+00  -0.2303302376E-02  -0.2303302376E-02   0.3271164336E+03  -0.9167012226E+01  -0.9167012226E+01   0.7952121060E+00   0.7952121060E+00   0.1042820267E-09   0.6023464201E-02   0.5283548368E-02   0.1004377534E-01
   0.2019000000E+01   0.1596949042E-02   0.1596949042E-02   0.1000000000E-05   0.2330943380E-06   0.2330943380E-06   0.1899900000E-01   0.1596715948E-02   0.1596715948E-02   0.3544745550E+03   0.1951081695E+02   0.1951081695E+02  -0.1053838728E+01  -0.1053838728E+01   0.1708811165E-09   0.4567166255E-02   0.3994994907E-02   0.8880474877E-02
   0.2019000000E+01   0.9984030510E+00   0.1596949042E-02   0.1000000000E-05  -0.2330943380E-06   0.2330943380E-06   0.1899900000E-01  -0.1596715948E-02   0.1596715948E-02   0.3544745550E+03   0.1951081695E+02   0.1951081695E+02   0.1053838727E+01  -0.1053838728E+01  -0.1840862797E-12   0.4567166255E-02   0.3994994907E-02   0.8880474877E-02
   0.2019000000E+01   0.1596949042E-02   0.9984030510E+00   0.1000000000E-05   0.2330943380E-06  -0.2330943380E-06   0.1899900000E-01   0.1596715948E-02  -0.1596715948E-02   0.3544745550E+03   0.1951081695E+02   0.1951081695E+02  -0.1053838728E+01   0.1053838727E+01  -0.1531000365E-13   0.4567166255E-02   0.3994994907E-02   0.8880474877E-02
   0.2019000000E+01   0.9984030510E+00   0.9984030510E+00   0.1000000000E-05  -0.2330943380E-06  -0.2330943380E-06   0.1899900000E-01  -0.1596715948E-02  -0.1596715948E-02   0.3544745549E+03   0.1951081695E+02   0.1951081695E+02   0.1053838727E+01   0.1053838727E+01  -0.1710805128E-09   0.4567166255E-02   0.3994994906E-02   0.8880474877E-02
     1     2     3     4     5     6     7     8
     2     9    10     3     6    11    12     7
 VARIABLES = X,Y,Z,DU1,DU2,DU3,U1,U2,U3,S11,S22,S33,S12,S13,S23,OMEGA,EP,E11
 ZONE, T="0.2000D+00" F=FEPOINT, I=   12 J=    2 ET=BRICK
   0.0000000000E+00   0.2290618574E-02   0.2290618574E-02   0.0000000000E+00  -0.7492349111E-07  -0.7492349111E-07   0.0000000000E+00   0.2290693498E-02   0.2290693498E-02   0.3365430135E+03  -0.1404626649E+00  -0.1404626649E+00   0.8185183571E+00   0.8185183571E+00  -0.1093617787E-10   0.6441497538E-02   0.5646094499E-02   0.1045710802E-01
   0.1010466842E+01   0.2088642577E-02   0.2088642577E-02   0.4754604563E-06   0.1262831032E-06   0.1262831032E-06   0.1046636617E-01   0.2088516294E-02   0.2088516294E-02   0.3290869515E+03  -0.7219107912E+01  -0.7219107912E+01   0.6329248067E+00   0.6329248067E+00   0.8903966319E-11   0.5902085720E-02   0.5172480877E-02   0.9944326562E-02
   0.1010466842E+01   0.9979113574E+00   0.2088642577E-02   0.4754604563E-06  -0.1262831032E-06   0.1262831032E-06   0.1046636617E-01  -0.2088516294E-02   0.2088516294E-02   0.3290869515E+03  -0.7219107912E+01  -0.7219107912E+01  -0.6329248081E+00   0.6329248067E+00  -0.3735965234E-13   0.5902085720E-02   0.5172480877E-02   0.9944326562E-02
   0.0000000000E+00   0.9977093814E+00   0.2290618574E-02   0.0000000000E+00   0.7492349111E-07  -0.7492349110E-07   0.0000000000E+00  -0.2290693497E-02   0.2290693498E-02   0.3365430134E+03  -0.1404626649E+00  -0.1404626649E+00  -0.8185183580E+00   0.8185183571E+00   0.4203891528E-13   0.6441497537E-02   0.5646094499E-02   0.1045710802E-01
   0.0000000000E+00   0.2290618574E-02   0.9977093814E+00   0.0000000000E+00  -0.7492349110E-07   0.7492349111E-07   0.0000000000E+00   0.2290693498E-02  -0.2290693497E-02   0.3365430134E+03  -0.1404626649E+00  -0.1404626649E+00   0.8185183571E+00  -0.8185183580E+00   0.5666077772E-13   0.6441497537E-02   0.5646094499E-02   0.1045710802E-01
   0.1010466842E+01   0.2088642577E-02   0.9979113574E+00   0.4754604563E-06   0.1262831032E-06  -0.1262831032E-06   0.1046636617E-01   0.2088516294E-02  -0.2088516294E-02   0.3290869515E+03  -0.7219107912E+01  -0.7219107912E+01   0.6329248067E+00  -0.6329248081E+00   0.8206158990E-14   0.5902085720E-02   0.5172480877E-02   0.9944326562E-02
   0.1010466842E+01   0.9979113574E+00   0.9979113574E+00   0.4754604563E-06  -0.1262831032E-06  -0.1262831032E-06   0.1046636617E-01  -0.2088516294E-02  -0.2088516294E-02   0.3290869515E+03  -0.7219107911E+01  -0.7219107911E+01  -0.6329248081E+00  -0.6329248081E+00  -0.8933119812E-11   0.5902085720E-02   0.5172480876E-02   0.9944326561E-02
   0.0000000000E+00   0.9977093814E+00   0.9977093814E+00   0.0000000000E+00   0.7492349110E-07   0.7492349110E-07   0.0000000000E+00  -0.2290693497E-02  -0.2290693497E-02   0.3365430134E+03  -0.1404626649E+00  -0.1404626649E+00  -0.8185183580E+00  -0.8185183580E+00   0.1103487756E-10   0.6441497537E-02   0.5646094499E-02   0.1045710802E-01
   0.2020000000E+01   0.1935072290E-02   0.1935072290E-02   0.1000000000E-05   0.3144964621E-06   0.3144964621E-06   0.1999900000E-01   0.1934757793E-02   0.1934757793E-02   0.3215895311E+03  -0.1425483248E+02  -0.1425483248E+02   0.4510741940E+00   0.4510741940E+00   0.3645734694E-10   0.5391598443E-02   0.4722018003E-02   0.9453183705E-02
   0.2020000000E+01   0.9980649277E+00   0.1935072290E-02   0.1000000000E-05  -0.3144964621E-06   0.3144964621E-06   0.1999900000E-01  -0.1934757793E-02   0.1934757793E-02   0.3215895311E+03  -0.1425483248E+02  -0.1425483248E+02  -0.4510741950E+00   0.4510741939E+00  -0.1671130554E-12   0.5391598443E-02   0.4722018002E-02   0.9453183705E-02
   0.2020000000E+01   0.1935072290E-02   0.9980649277E+00   0.1000000000E-05   0.3144964621E-06  -0.3144964621E-06   0.1999900000E-01   0.1934757793E-02  -0.1934757793E-02   0.3215895311E+03  -0.1425483248E+02  -0.1425483248E+02   0.4510741939E+00  -0.4510741950E+00  -0.1194775259E-13   0.5391598443E-02   0.4722018002E-02   0.9453183705E-02
   0.2020000000E+01   0.9980649277E+00   0.9980649277E+00   0.1000000000E-05  -0.3144964620E-06  -0.3144964620E-06   0.1999900000E-01  -0.1934757793E-02  -0.1934757793E-02   0.3215895311E+03  -0.1425483248E+02  -0.1425483248E+02  -0.4510741950E+00  -0.4510741950E+00  -0.3663640774E-10   0.5391598443E-02   0.4722018002E-02   0.9453183704E-02
     1     2     3     4     5     6     7     8
     2     9    10     3     6    11    12     7
 VARIABLES = X,Y,Z,DU1,DU2,DU3,U1,U2,U3,S11,S22,S33,S12,S13,S23,OMEGA,EP,E11
 ZONE, T="0.2100D+00" F=FEPOINT, I=   12 J=    2 ET=BRICK
   0.0000000000E+00   0.2298945339E-02   0.2298945339E-02   0.0000000000E+00   0.1380736481E-06   0.1380736481E-06   0.0000000000E+00   0.2298807265E-02   0.2298807265E-02   0.3490191843E+03   0.1192422823E+02   0.1192422823E+02   0.1356014045E+01   0.1356014045E+01   0.8855495150E-10   0.6748416053E-02   0.5918960340E-02   0.1079552769E-01
   0.1010824755E+01   0.2168181149E-02   0.2168181149E-02   0.2415643948E-06   0.7821008640E-07   0.7821008640E-07   0.1082451379E-01   0.2168102939E-02   0.2168102939E-02   0.3417945265E+03   0.5013874546E+01   0.5013874546E+01   0.1127023563E+01   0.1127023563E+01   0.4640569061E-10   0.6394909225E-02   0.5601044459E-02   0.1043992567E-01
   0.1010824755E+01   0.9978318189E+00   0.2168181149E-02   0.2415643949E-06  -0.7821008640E-07   0.7821008640E-07   0.1082451379E-01  -0.2168102939E-02   0.2168102939E-02   0.3417945265E+03   0.5013874546E+01   0.5013874546E+01  -0.1127023564E+01   0.1127023563E+01  -0.4713441661E-14   0.6394909224E-02   0.5601044458E-02   0.1043992567E-01
   0.0000000000E+00   0.9977010547E+00   0.2298945339E-02   0.0000000000E+00  -0.1380736481E-06   0.1380736481E-06   0.0000000000E+00  -0.2298807265E-02   0.2298807265E-02   0.3490191843E+03   0.1192422823E+02   0.1192422823E+02  -0.1356014045E+01   0.1356014045E+01   0.4802222692E-13   0.6748416053E-02   0.5918960340E-02   0.1079552768E-01
   0.0000000000E+00   0.2298945339E-02   0.9977010547E+00   0.0000000000E+00   0.1380736481E-06  -0.1380736481E-06   0.0000000000E+00   0.2298807265E-02  -0.2298807265E-02   0.3490191843E+03   0.1192422823E+02   0.1192422823E+02   0.1356014045E+01  -0.1356014045E+01   0.5151717166E-13   0.6748416053E-02   0.5918960340E-02   0.1079552768E-01
   0.1010824755E+01   0.2168181149E-02   0.9978318189E+00   0.2415643949E-06   0.7821008640E-07  -0.7821008640E-07   0.1082451379E-01   0.2168102939E-02  -0.2168102939E-02   0.3417945265E+03   0.5013874546E+01   0.5013874546E+01   0.1127023563E+01  -0.1127023564E+01  -0.2292024993E-14   0.6394909224E-02   0.5601044458E-02   0.1043992567E-01
   0.1010824755E+01   0.9978318189E+00   0.9978318189E+00   0.2415643949E-06  -0.7821008640E-07  -0.7821008640E-07   0.1082451379E-01  -0.2168102939E-02  -0.2168102939E-02   0.3417945265E+03   0.5013874545E+01   0.5013874545E+01  -0.1127023564E+01  -0.1127023564E+01  -0.4641269608E-10   0.6394909224E-02   0.5601044458E-02   0.1043992567E-01
   0.0000000000E+00   0.9977010547E+00   0.9977010547E+00   0.0000000000E+00  -0.1380736481E-06  -0.1380736481E-06   0.0000000000E+00  -0.2298807265E-02  -0.2298807265E-02   0.3490191843E+03   0.1192422823E+02   0.1192422823E+02  -0.1356014045E+01  -0.1356014045E+01  -0.8845541209E-10   0.6748416053E-02   0.5918960340E-02   0.1079552768E-01
   0.2021000000E+01   0.2080303780E-02   0.2080303780E-02   0.1000000000E-05   0.2083041748E-07   0.2083041748E-07   0.2099900000E-01   0.2080282949E-02   0.2080282949E-02   0.3345924254E+03  -0.1889949284E+01  -0.1889949284E+01   0.9060821765E+00   0.9060821765E+00   0.6105470987E-12   0.6067192329E-02   0.5302490271E-02   0.1010347748E-01
   0.2021000000E+01   0.9979196962E+00   0.2080303780E-02   0.1000000000E-05  -0.2083041746E-07   0.2083041748E-07   0.2099900000E-01  -0.2080282949E-02   0.2080282949E-02   0.3345924254E+03  -0.1889949284E+01  -0.1889949284E+01  -0.9060821771E+00   0.9060821764E+00  -0.7806263300E-13   0.6067192329E-02   0.5302490270E-02   0.1010347748E-01
   0.2021000000E+01   0.2080303780E-02   0.9979196962E+00   0.1000000000E-05   0.2083041748E-07  -0.2083041746E-07   0.2099900000E-01   0.2080282949E-02  -0.2080282949E-02   0.3345924254E+03  -0.1889949284E+01  -0.1889949284E+01   0.9060821764E+00  -0.9060821771E+00   0.1412095115E-13   0.6067192329E-02   0.5302490270E-02   0.1010347748E-01
   0.2021000000E+01   0.9979196962E+00   0.9979196962E+00   0.1000000000E-05  -0.2083041746E-07  -0.2083041746E-07   0.2099900000E-01  -0.2080282949E-02  -0.2080282949E-02   0.3345924254E+03  -0.1889949284E+01  -0.1889949284E+01  -0.9060821770E+00  -0.9060821770E+00  -0.6744887800E-12   0.6067192328E-02   0.5302490270E-02   0.1010347748E-01
     1     2     3     4     5     6     7     8
     2     9    10     3     6    11    12     7
 VARIABLES = X,Y,Z,DU1,DU2,DU3,U1,U2,U3,S11,S22,S33,S12,S13,S23,OMEGA,EP,E11
 ZONE, T="0.2200D+00" F=FEPOINT, I=   12 J=    2 ET=BRICK
   0.0000000000E+00   0.2486326510E-02   0.2486326510E-02   0.0000000000E+00   0.1363233257E-06   0.1363233257E-06   0.0000000000E+00   0.2486190186E-02   0.2486190186E-02   0.3222643028E+03  -0.1513130436E+02  -0.1513130436E+02   0.8336769588E+00   0.8336769588E+00   0.4295496257E-10   0.7206018597E-02   0.6319415993E-02   0.1106679676E-01
   0.1011087947E+01   0.2306232500E-02   0.2306232500E-02   0.3638299150E-06   0.1793726992E-06   0.1793726992E-06   0.1108758289E-01   0.2306053127E-02   0.2306053127E-02   0.3372487384E+03   0.7668470995E-01   0.7668470995E-01   0.6545706212E+00   0.6545706212E+00   0.1325569815E-10   0.6973531906E-02   0.6113317315E-02   0.1093348101E-01
   0.1011087947E+01   0.9976937675E+00   0.2306232500E-02   0.3638299150E-06  -0.1793726992E-06   0.1793726992E-06   0.1108758289E-01  -0.2306053127E-02   0.2306053127E-02   0.3372487384E+03   0.7668470996E-01   0.7668470994E-01  -0.6545706208E+00   0.6545706212E+00   0.2141099799E-13   0.6973531905E-02   0.6113317315E-02   0.1093348101E-01
   0.0000000000E+00   0.9975136735E+00   0.2486326510E-02   0.0000000000E+00  -0.1363233257E-06   0.1363233257E-06   0.0000000000E+00  -0.2486190186E-02   0.2486190186E-02   0.3222643028E+03  -0.1513130436E+02  -0.1513130436E+02  -0.8336769585E+00   0.8336769588E+00   0.2979221851E-13   0.7206018597E-02   0.6319415993E-02   0.1106679676E-01
   0.0000000000E+00   0.2486326510E-02   0.9975136735E+00   0.0000000000E+00   0.1363233257E-06  -0.1363233257E-06   0.0000000000E+00   0.2486190186E-02  -0.2486190186E-02   0.3222643028E+03  -0.1513130436E+02  -0.1513130436E+02   0.8336769588E+00  -0.8336769585E+00   0.1815859933E-13   0.7206018597E-02   0.6319415993E-02   0.1106679676E-01
   0.1011087947E+01   0.2306232500E-02   0.9976937675E+00   0.3638299150E-06   0.1793726992E-06  -0.1793726992E-06   0.1108758289E-01   0.2306053127E-02  -0.2306053127E-02   0.3372487384E+03   0.7668470994E-01   0.7668470996E-01   0.6545706212E+00  -0.6545706208E+00  -0.1301682401E-13   0.6973531905E-02   0.6113317315E-02   0.1093348101E-01
   0.1011087947E+01   0.9976937675E+00   0.9976937675E+00   0.3638299151E-06  -0.1793726992E-06  -0.1793726992E-06   0.1108758289E-01  -0.2306053127E-02  -0.2306053127E-02   0.3372487384E+03   0.7668470994E-01   0.7668470994E-01  -0.6545706208E+00  -0.6545706208E+00  -0.1324730398E-10   0.6973531905E-02   0.6113317315E-02   0.1093348101E-01
   0.0000000000E+00   0.9975136735E+00   0.9975136735E+00   0.0000000000E+00  -0.1363233257E-06  -0.1363233257E-06   0.0000000000E+00  -0.2486190186E-02  -0.2486190186E-02   0.3222643028E+03  -0.1513130436E+02  -0.1513130436E+02  -0.8336769584E+00  -0.8336769584E+00  -0.4290701175E-10   0.7206018597E-02   0.6319415993E-02   0.1106679676E-01
   0.2022000000E+01   0.2179555203E-02   0.2179555203E-02   0.1000000000E-05   0.2403742151E-06   0.2403742151E-06   0.2199900000E-01   0.2179314829E-02   0.2179314829E-02   0.3522985290E+03   0.1527208997E+02   0.1527208997E+02   0.4814379328E+00   0.4814379328E+00  -0.3220393631E-10   0.6771376282E-02   0.5930568838E-02   0.1082402978E-01
   0.2022000000E+01   0.9978204448E+00   0.2179555203E-02   0.1000000000E-05  -0.2403742150E-06   0.2403742150E-06   0.2199900000E-01  -0.2179314828E-02   0.2179314828E-02   0.3522985290E+03   0.1527208997E+02   0.1527208997E+02  -0.4814379324E+00   0.4814379327E+00   0.1651863038E-13   0.6771376282E-02   0.5930568838E-02   0.1082402978E-01
   0.2022000000E+01   0.2179555203E-02   0.9978204448E+00   0.1000000000E-05   0.2403742150E-06  -0.2403742150E-06   0.2199900000E-01   0.2179314828E-02  -0.2179314828E-02   0.3522985290E+03   0.1527208997E+02   0.1527208997E+02   0.4814379327E+00  -0.4814379324E+00   0.3511243229E-13   0.6771376282E-02   0.5930568838E-02   0.1082402978E-01
   0.2022000000E+01   0.9978204448E+00   0.9978204448E+00   0.1000000000E-05  -0.2403742150E-06  -0.2403742150E-06   0.2199900000E-01  -0.2179314828E-02  -0.2179314828E-02   0.3522985290E+03   0.1527208997E+02   0.1527208997E+02  -0.4814379324E+00  -0.4814379324E+00   0.3225556737E-10   0.6771376282E-02   0.5930568838E-02   0.1082402978E-01
     1     2     3     4     5     6     7     8
     2     9    10     3     6    11    12     7
 VARIABLES = X,Y,Z,DU1,DU2,DU3,U1,U2,U3,S11,S22,S33,S12,S13,S23,OMEGA,EP,E11
 ZONE, T="0.2300D+00" F=FEPOINT, I=   12 J=    2 ET=BRICK
   0.0000000000E+00   0.2476368078E-02   0.2476368078E-02   0.0000000000E+00  -0.9852313263E-07  -0.9852313263E-07   0.0000000000E+00   0.2476466601E-02   0.2476466601E-02   0.3374224051E+03  -0.3225296545E+00  -0.3225296545E+00   0.1986504012E+01   0.1986504012E+01   0.6026582362E-10   0.7624613484E-02   0.6679305677E-02   0.1150508771E-01
   0.1011564152E+01   0.2441612592E-02   0.2441612592E-02   0.5170053991E-06   0.7265523914E-07   0.7265523914E-07   0.1156363541E-01   0.2441539936E-02   0.2441539936E-02   0.3325747901E+03  -0.5146973350E+01  -0.5146973350E+01   0.1881930743E+01   0.1881930743E+01  -0.2186556849E-10   0.7557665693E-02   0.6623014551E-02   0.1142531101E-01
   0.1011564152E+01   0.9975583874E+00   0.2441612592E-02   0.5170053991E-06  -0.7265523914E-07   0.7265523914E-07   0.1156363541E-01  -0.2441539936E-02   0.2441539936E-02   0.3325747901E+03  -0.5146973349E+01  -0.5146973349E+01  -0.1881930742E+01   0.1881930743E+01   0.1279332854E-13   0.7557665693E-02   0.6623014551E-02   0.1142531100E-01
   0.0000000000E+00   0.9975236319E+00   0.2476368078E-02   0.0000000000E+00   0.9852313262E-07  -0.9852313263E-07   0.0000000000E+00  -0.2476466601E-02   0.2476466601E-02   0.3374224051E+03  -0.3225296545E+00  -0.3225296546E+00  -0.1986504011E+01   0.1986504012E+01  -0.3192672800E-13   0.7624613484E-02   0.6679305677E-02   0.1150508770E-01
   0.0000000000E+00   0.2476368078E-02   0.9975236319E+00   0.0000000000E+00  -0.9852313263E-07   0.9852313262E-07   0.0000000000E+00   0.2476466601E-02  -0.2476466601E-02   0.3374224051E+03  -0.3225296546E+00  -0.3225296545E+00   0.1986504012E+01  -0.1986504011E+01  -0.5055368843E-13   0.7624613484E-02   0.6679305677E-02   0.1150508770E-01
   0.1011564152E+01   0.2441612592E-02   0.9975583874E+00   0.5170053991E-06   0.7265523914E-07  -0.7265523914E-07   0.1156363541E-01   0.2441539936E-02  -0.2441539936E-02   0.3325747901E+03  -0.5146973349E+01  -0.5146973349E+01   0.1881930743E+01  -0.1881930742E+01  -0.3064100321E-13   0.7557665693E-02   0.6623014551E-02   0.1142531100E-01
   0.1011564152E+01   0.9975583874E+00   0.9975583874E+00   0.5170053991E-06  -0.7265523914E-07  -0.7265523914E-07   0.1156363541E-01  -0.2441539936E-02  -0.2441539936E-02   0.3325747901E+03  -0.5146973349E+01  -0.5146973349E+01  -0.1881930742E+01  -0.1881930742E+01   0.2184772082E-10   0.7557665693E-02   0.6623014550E-02   0.1142531100E-01
   0.0000000000E+00   0.9975236319E+00   0.9975236319E+00   0.0000000000E+00   0.9852313262E-07   0.9852313262E-07   0.0000000000E+00  -0.2476466601E-02  -0.2476466601E-02   0.3374224051E+03  -0.3225296545E+00  -0.3225296545E+00  -0.1986504011E+01  -0.1986504011E+01  -0.6034830403E-10   0.7624613484E-02   0.6679305677E-02   0.1150508770E-01
   0.2023000000E+01   0.2483640904E-02   0.2483640904E-02   0.1000000000E-05   0.2714693317E-06   0.2714693317E-06   0.2299900000E-01   0.2483369435E-02   0.2483369435E-02   0.3276973067E+03  -0.9927461333E+01  -0.9927461333E+01   0.1784113201E+01   0.1784113201E+01  -0.1258963460E-09   0.7533914751E-02   0.6602546305E-02   0.1137981688E-01
   0.2023000000E+01   0.9975163591E+00   0.2483640904E-02   0.1000000000E-05  -0.2714693317E-06   0.2714693317E-06   0.2299900000E-01  -0.2483369435E-02   0.2483369435E-02   0.3276973066E+03  -0.9927461332E+01  -0.9927461332E+01  -0.1784113200E+01   0.1784113201E+01   0.5487173809E-13   0.7533914751E-02   0.6602546304E-02   0.1137981688E-01
   0.2023000000E+01   0.2483640904E-02   0.9975163591E+00   0.1000000000E-05   0.2714693317E-06  -0.2714693317E-06   0.2299900000E-01   0.2483369435E-02  -0.2483369435E-02   0.3276973066E+03  -0.9927461332E+01  -0.9927461332E+01   0.1784113201E+01  -0.1784113200E+01   0.2841896532E-13   0.7533914751E-02   0.6602546304E-02   0.1137981688E-01
   0.2023000000E+01   0.9975163591E+00   0.9975163591E+00   0.1000000000E-05  -0.2714693317E-06  -0.2714693317E-06   0.2299900000E-01  -0.2483369435E-02  -0.2483369435E-02   0.3276973066E+03  -0.9927461332E+01  -0.9927461332E+01  -0.1784113200E+01  -0.1784113200E+01   0.1259796367E-09   0.7533914751E-02   0.6602546304E-02   0.1137981688E-01
     1     2     3     4     5     6     7     8
     2     9    10     3     6    11    12     7
 VARIABLES = X,Y,Z,DU1,DU2,DU3,U1,U2,U3,S11,S22,S33,S12,S13,S23,OMEGA,EP,E11
 ZONE, T="0.2400D+00" F=FEPOINT, I=   12 J=    2 ET=BRICK
   0.0000000000E+00   0.2501275734E-02   0.2501275734E-02   0.0000000000E+00   0.2039249099E-06   0.2039249099E-06   0.0000000000E+00   0.2501071809E-02   0.2501071809E-02   0.3526066500E+03   0.1466357662E+02   0.1466357662E+02   0.2209591058E+01   0.2209591058E+01   0.4551231298E-10   0.7987313016E-02   0.7003356937E-02   0.1190590789E-01
   0.1011979868E+01   0.2512233891E-02   0.2512233891E-02   0.3052645580E-06   0.1142873503E-06   0.1142873503E-06   0.1197956227E-01   0.2512119603E-02   0.2512119603E-02   0.3450841194E+03   0.7152664166E+01   0.7152664166E+01   0.2186032457E+01   0.2186032457E+01  -0.1398886460E-11   0.8044757294E-02   0.7050314493E-02   0.1191618272E-01
   0.1011979868E+01   0.9974877661E+00   0.2512233891E-02   0.3052645580E-06  -0.1142873503E-06   0.1142873503E-06   0.1197956227E-01  -0.2512119603E-02   0.2512119603E-02   0.3450841194E+03   0.7152664166E+01   0.7152664166E+01  -0.2186032456E+01   0.2186032457E+01   0.2014742344E-14   0.8044757293E-02   0.7050314492E-02   0.1191618272E-01
   0.0000000000E+00   0.9974987243E+00   0.2501275734E-02   0.0000000000E+00  -0.2039249098E-06   0.2039249099E-06   0.0000000000E+00  -0.2501071809E-02   0.2501071809E-02   0.3526066500E+03   0.1466357661E+02   0.1466357661E+02  -0.2209591057E+01   0.2209591058E+01  -0.7024823153E-13   0.7987313016E-02   0.7003356937E-02   0.1190590789E-01
   0.0000000000E+00   0.2501275734E-02   0.9974987243E+00   0.0000000000E+00   0.2039249099E-06  -0.2039249098E-06   0.0000000000E+00   0.2501071809E-02  -0.2501071809E-02   0.3526066500E+03   0.1466357661E+02   0.1466357661E+02   0.2209591058E+01  -0.2209591057E+01  -0.9095415944E-13   0.7987313016E-02   0.7003356937E-02   0.1190590789E-01
   0.1011979868E+01   0.2512233891E-02   0.9974877661E+00   0.3052645580E-06   0.1142873503E-06  -0.1142873503E-06   0.1197956227E-01   0.2512119603E-02  -0.2512119603E-02   0.3450841194E+03   0.7152664166E+01   0.7152664166E+01   0.2186032457E+01  -0.2186032456E+01  -0.2234697012E-13   0.8044757293E-02   0.7050314492E-02   0.1191618272E-01
   0.1011979868E+01   0.9974877661E+00   0.9974877661E+00   0.3052645580E-06  -0.1142873503E-06  -0.1142873503E-06   0.1197956227E-01  -0.2512119603E-02  -0.2512119603E-02   0.3450841194E+03   0.7152664166E+01   0.7152664166E+01  -0.2186032456E+01  -0.2186032456E+01   0.1378554232E-11   0.8044757293E-02   0.7050314492E-02   0.1191618272E-01
   0.0000000000E+00   0.9974987243E+00   0.9974987243E+00   0.0000000000E+00  -0.2039249098E-06  -0.2039249098E-06   0.0000000000E+00  -0.2501071809E-02  -0.2501071809E-02   0.3526066500E+03   0.1466357661E+02   0.1466357661E+02  -0.2209591057E+01  -0.2209591057E+01  -0.4567351537E-10   0.7987313016E-02   0.7003356937E-02   0.1190590789E-01
   0.2024000000E+01   0.2629730055E-02   0.2629730055E-02   0.1000000000E-05   0.5541751379E-07   0.5541751379E-07   0.2399900000E-01   0.2629674637E-02   0.2629674637E-02   0.3377230440E+03  -0.4054492482E+00  -0.4054492482E+00   0.2166450809E+01   0.2166450809E+01  -0.7097181092E-10   0.8157482896E-02   0.7142987076E-02   0.1197403939E-01
   0.2024000000E+01   0.9973702699E+00   0.2629730055E-02   0.1000000000E-05  -0.5541751380E-07   0.5541751379E-07   0.2399900000E-01  -0.2629674637E-02   0.2629674637E-02   0.3377230440E+03  -0.4054492483E+00  -0.4054492481E+00  -0.2166450808E+01   0.2166450809E+01   0.5625678476E-13   0.8157482895E-02   0.7142987076E-02   0.1197403939E-01
   0.2024000000E+01   0.2629730055E-02   0.9973702699E+00   0.1000000000E-05   0.5541751379E-07  -0.5541751380E-07   0.2399900000E-01   0.2629674637E-02  -0.2629674637E-02   0.3377230440E+03  -0.4054492481E+00  -0.4054492483E+00   0.2166450809E+01  -0.2166450808E+01   0.2594523155E-13   0.8157482895E-02   0.7142987076E-02   0.1197403939E-01
   0.2024000000E+01   0.9973702699E+00   0.9973702699E+00   0.1000000000E-05  -0.5541751380E-07  -0.5541751380E-07   0.2399900000E-01  -0.2629674637E-02  -0.2629674637E-02   0.3377230440E+03  -0.4054492482E+00  -0.4054492482E+00  -0.2166450808E+01  -0.2166450808E+01   0.7105401293E-10   0.8157482895E-02   0.7142987076E-02   0.1197403939E-01
     1     2     3     4     5     6     7     8
     2     9    10     3     6    11    12     7
 VARIABLES = X,Y,Z,DU1,DU2,DU3,U1,U2,U3,S11,S22,S33,S12,S13,S23,OMEGA,EP,E11
 ZONE, T="0.2500D+00" F=FEPOINT, I=   12 J=    2 ET=BRICK
   0.0000000000E+00   0.2752529488E-02   0.2752529488E-02   0.0000000000E+00   0.1673104911E-06   0.1673104911E-06   0.0000000000E+00   0.2752362178E-02   0.2752362178E-02   0.3180503318E+03  -0.2031648719E+02  -0.2031648719E+02   0.1218957507E+01   0.1218957507E+01  -0.9874772621E-10   0.8564694141E-02   0.7506978295E-02   0.1224287653E-01
   0.1012300171E+01   0.2671295924E-02   0.2671295924E-02   0.4167633151E-06   0.1589300632E-06   0.1589300632E-06   0.1229975395E-01   0.2671136994E-02   0.2671136994E-02   0.3334644214E+03  -0.5021390292E+01  -0.5021390292E+01   0.1301725317E+01   0.1301725317E+01  -0.3411566629E-10   0.8661029547E-02   0.7593032410E-02   0.1240683441E-01
   0.1012300171E+01   0.9973287041E+00   0.2671295924E-02   0.4167633151E-06  -0.1589300632E-06   0.1589300632E-06   0.1229975395E-01  -0.2671136994E-02   0.2671136994E-02   0.3334644214E+03  -0.5021390292E+01  -0.5021390292E+01  -0.1301725318E+01   0.1301725317E+01   0.1256694875E-13   0.8661029547E-02   0.7593032410E-02   0.1240683441E-01
   0.0000000000E+00   0.9972474705E+00   0.2752529488E-02   0.0000000000E+00  -0.1673104911E-06   0.1673104911E-06   0.0000000000E+00  -0.2752362177E-02   0.2752362178E-02   0.3180503318E+03  -0.2031648719E+02  -0.2031648719E+02  -0.1218957507E+01   0.1218957507E+01  -0.3533917110E-13   0.8564694141E-02   0.7506978294E-02   0.1224287653E-01
   0.0000000000E+00   0.2752529488E-02   0.9972474705E+00   0.0000000000E+00   0.1673104911E-06  -0.1673104911E-06   0.0000000000E+00   0.2752362178E-02  -0.2752362177E-02   0.3180503318E+03  -0.2031648719E+02  -0.2031648719E+02   0.1218957507E+01  -0.1218957507E+01  -0.5919049914E-13   0.8564694141E-02   0.7506978294E-02   0.1224287653E-01
   0.1012300171E+01   0.2671295924E-02   0.9973287041E+00   0.4167633151E-06   0.1589300632E-06  -0.1589300632E-06   0.1229975395E-01   0.2671136994E-02  -0.2671136994E-02   0.3334644214E+03  -0.5021390292E+01  -0.5021390292E+01   0.1301725317E+01  -0.1301725318E+01   0.2190229805E-13   0.8661029547E-02   0.7593032410E-02   0.1240683441E-01
   0.1012300171E+01   0.9973287041E+00   0.9973287041E+00   0.4167633150E-06  -0.1589300632E-06  -0.1589300632E-06   0.1229975395E-01  -0.2671136994E-02  -0.2671136994E-02   0.3334644214E+03  -0.5021390292E+01  -0.5021390292E+01  -0.1301725318E+01  -0.1301725318E+01   0.3415013554E-10   0.8661029547E-02   0.7593032409E-02   0.1240683441E-01
   0.0000000000E+00   0.9972474705E+00   0.9972474705E+00   0.0000000000E+00  -0.1673104911E-06  -0.1673104911E-06   0.0000000000E+00  -0.2752362177E-02  -0.2752362177E-02   0.3180503318E+03  -0.2031648719E+02  -0.2031648719E+02  -0.1218957507E+01  -0.1218957507E+01   0.9865319653E-10   0.8564694141E-02   0.7506978294E-02   0.1224287653E-01
   0.2025000000E+01   0.2725910324E-02   0.2725910324E-02   0.1000000000E-05   0.1771103241E-06   0.1771103241E-06   0.2499900000E-01   0.2725733214E-02   0.2725733214E-02   0.3489521189E+03   0.1027613574E+02   0.1027613574E+02   0.1383960511E+01   0.1383960511E+01   0.1279712521E-10   0.8830136957E-02   0.7739823885E-02   0.1263148587E-01
   0.2025000000E+01   0.9972740897E+00   0.2725910324E-02   0.1000000000E-05  -0.1771103241E-06   0.1771103241E-06   0.2499900000E-01  -0.2725733214E-02   0.2725733214E-02   0.3489521189E+03   0.1027613574E+02   0.1027613574E+02  -0.1383960512E+01   0.1383960511E+01   0.3800224494E-13   0.8830136956E-02   0.7739823885E-02   0.1263148587E-01
   0.2025000000E+01   0.2725910324E-02   0.9972740897E+00   0.1000000000E-05   0.1771103241E-06  -0.1771103241E-06   0.2499900000E-01   0.2725733214E-02  -0.2725733214E-02   0.3489521189E+03   0.1027613574E+02   0.1027613574E+02   0.1383960511E+01  -0.1383960512E+01   0.4008140285E-13   0.8830136956E-02   0.7739823885E-02   0.1263148587E-01
   0.2025000000E+01   0.9972740897E+00   0.9972740897E+00   0.1000000000E-05  -0.1771103241E-06  -0.1771103241E-06   0.2499900000E-01  -0.2725733214E-02  -0.2725733214E-02   0.3489521189E+03   0.1027613574E+02   0.1027613574E+02  -0.1383960512E+01  -0.1383960512E+01  -0.1271904156E-10   0.8830136956E-02   0.7739823885E-02   0.1263148587E-01
     1     2     3     4     5     6     7     8
     2     9    10     3     6    11    12     7
 VARIABLES = X,Y,Z,DU1,DU2,DU3,U1,U2,U3,S11,S22,S33,S12,S13,S23,OMEGA,EP,E11
 ZONE, T="0.2600D+00" F=FEPOINT, I=   12 J=    2 ET=BRICK
   0.0000000000E+00   0.2747288921E-02   0.2747288921E-02   0.0000000000E+00  -0.8907515033E-07  -0.8907515033E-07   0.0000000000E+00   0.2747377996E-02   0.2747377996E-02   0.3418002787E+03   0.3172280555E+01   0.3172280555E+01   0.1985728536E+01   0.1985728536E+01  -0.5885996121E-10   0.9019423640E-02   0.7896953638E-02   0.1275262165E-01
   0.1012839999E+01   0.2770056296E-02   0.2770056296E-02   0.5966212389E-06   0.5751073349E-07   0.5751073349E-07   0.1283940257E-01   0.2769998785E-02   0.2769998785E-02   0.3386952307E+03   0.2046005312E-02   0.2046005312E-02   0.2123721994E+01   0.2123721994E+01  -0.3318510624E-11   0.9193187069E-02   0.8056622690E-02   0.1289812762E-01
   0.1012839999E+01   0.9972299437E+00   0.2770056296E-02   0.5966212389E-06  -0.5751073349E-07   0.5751073350E-07   0.1283940257E-01  -0.2769998785E-02   0.2769998785E-02   0.3386952307E+03   0.2046005311E-02   0.2046005317E-02  -0.2123721995E+01   0.2123721994E+01   0.6814165569E-14   0.9193187068E-02   0.8056622690E-02   0.1289812762E-01
   0.0000000000E+00   0.9972527111E+00   0.2747288921E-02   0.0000000000E+00   0.8907515032E-07  -0.8907515032E-07   0.0000000000E+00  -0.2747377996E-02   0.2747377996E-02   0.3418002787E+03   0.3172280554E+01   0.3172280555E+01  -0.1985728536E+01   0.1985728536E+01   0.1722397560E-13   0.9019423640E-02   0.7896953637E-02   0.1275262165E-01
   0.0000000000E+00   0.2747288921E-02   0.9972527111E+00   0.0000000000E+00  -0.8907515032E-07   0.8907515032E-07   0.0000000000E+00   0.2747377996E-02  -0.2747377996E-02   0.3418002787E+03   0.3172280555E+01   0.3172280554E+01   0.1985728536E+01  -0.1985728536E+01  -0.1646716102E-13   0.9019423640E-02   0.7896953637E-02   0.1275262165E-01
   0.1012839999E+01   0.2770056296E-02   0.9972299437E+00   0.5966212389E-06   0.5751073350E-07  -0.5751073349E-07   0.1283940257E-01   0.2769998785E-02  -0.2769998785E-02   0.3386952307E+03   0.2046005318E-02   0.2046005311E-02   0.2123721994E+01  -0.2123721995E+01   0.4195233067E-13   0.9193187068E-02   0.8056622690E-02   0.1289812762E-01
   0.1012839999E+01   0.9972299437E+00   0.9972299437E+00   0.5966212389E-06  -0.5751073349E-07  -0.5751073349E-07   0.1283940257E-01  -0.2769998785E-02  -0.2769998785E-02   0.3386952307E+03   0.2046005316E-02   0.2046005317E-02  -0.2123721995E+01  -0.2123721995E+01   0.3367277121E-11   0.9193187068E-02   0.8056622690E-02   0.1289812762E-01
   0.0000000000E+00   0.9972527111E+00   0.9972527111E+00   0.0000000000E+00   0.8907515032E-07   0.8907515032E-07   0.0000000000E+00  -0.2747377996E-02  -0.2747377996E-02   0.3418002786E+03   0.3172280554E+01   0.3172280554E+01  -0.1985728536E+01  -0.1985728536E+01   0.5886071802E-10   0.9019423639E-02   0.7896953637E-02   0.1275262165E-01
   0.2026000000E+01   0.2950286803E-02   0.2950286803E-02   0.1000000000E-05   0.2199633160E-06   0.2199633160E-06   0.2599900000E-01   0.2950066840E-02   0.2950066840E-02   0.3356828839E+03  -0.3167452742E+01  -0.3167452742E+01   0.2255705832E+01   0.2255705832E+01   0.4536211556E-10   0.9449452199E-02   0.8286580524E-02   0.1311401478E-01
   0.2026000000E+01   0.9970497132E+00   0.2950286803E-02   0.1000000000E-05  -0.2199633160E-06   0.2199633160E-06   0.2599900000E-01  -0.2950066840E-02   0.2950066840E-02   0.3356828839E+03  -0.3167452742E+01  -0.3167452742E+01  -0.2255705833E+01   0.2255705832E+01  -0.1520992956E-13   0.9449452199E-02   0.8286580523E-02   0.1311401478E-01
   0.2026000000E+01   0.2950286803E-02   0.9970497132E+00   0.1000000000E-05   0.2199633160E-06  -0.2199633160E-06   0.2599900000E-01   0.2950066840E-02  -0.2950066840E-02   0.3356828839E+03  -0.3167452742E+01  -0.3167452742E+01   0.2255705832E+01  -0.2255705833E+01   0.2902532748E-13   0.9449452199E-02   0.8286580523E-02   0.1311401478E-01
   0.2026000000E+01   0.9970497132E+00   0.9970497132E+00   0.1000000000E-05  -0.2199633160E-06  -0.2199633160E-06   0.2599900000E-01  -0.2950066840E-02  -0.2950066840E-02   0.3356828839E+03  -0.3167452741E+01  -0.3167452741E+01  -0.2255705833E+01  -0.2255705833E+01  -0.4534830016E-10   0.9449452199E-02   0.8286580523E-02   0.1311401478E-01
     1     2     3     4     5     6     7     8
     2     9    10     3     6    11    12     7
 VARIABLES = X,Y,Z,DU1,DU2,DU3,U1,U2,U3,S11,S22,S33,S12,S13,S23,OMEGA,EP,E11
 ZONE, T="0.2700D+00" F=FEPOINT, I=   12 J=    2 ET=BRICK
   0.0000000000E+00   0.2816557133E-02   0.2816557133E-02   0.0000000000E+00   0.2657920405E-06   0.2657920405E-06   0.0000000000E+00   0.2816291341E-02   0.2816291341E-02   0.3527354961E+03   0.1366363058E+02   0.1366363058E+02   0.2044552971E+01   0.2044552971E+01  -0.2543354665E-10   0.9502338956E-02   0.8329843881E-02   0.1324359174E-01
   0.1013344593E+01   0.2871754934E-02   0.2871754934E-02   0.3934774063E-06   0.1644895752E-06   0.1644895752E-06   0.1334419964E-01   0.2871590444E-02   0.2871590444E-02   0.3441911755E+03   0.5011215995E+01   0.5011215995E+01   0.2192317582E+01   0.2192317582E+01   0.2560264841E-10   0.9715018466E-02   0.8517488184E-02   0.1339055780E-01
   0.1013344593E+01   0.9971282451E+00   0.2871754934E-02   0.3934774063E-06  -0.1644895752E-06   0.1644895752E-06   0.1334419964E-01  -0.2871590444E-02   0.2871590444E-02   0.3441911755E+03   0.5011215994E+01   0.5011215994E+01  -0.2192317582E+01   0.2192317582E+01  -0.2313845784E-13   0.9715018465E-02   0.8517488184E-02   0.1339055780E-01
   0.0000000000E+00   0.9971834429E+00   0.2816557133E-02   0.0000000000E+00  -0.2657920405E-06   0.2657920405E-06   0.0000000000E+00  -0.2816291341E-02   0.2816291341E-02   0.3527354961E+03   0.1366363058E+02   0.1366363058E+02  -0.2044552971E+01   0.2044552970E+01   0.3976684421E-13   0.9502338956E-02   0.8329843881E-02   0.1324359174E-01
   0.0000000000E+00   0.2816557133E-02   0.9971834429E+00   0.0000000000E+00   0.2657920405E-06  -0.2657920405E-06   0.0000000000E+00   0.2816291341E-02  -0.2816291341E-02   0.3527354961E+03   0.1366363058E+02   0.1366363058E+02   0.2044552970E+01  -0.2044552971E+01  -0.1034119489E-13   0.9502338956E-02   0.8329843881E-02   0.1324359174E-01
   0.1013344593E+01   0.2871754934E-02   0.9971282451E+00   0.3934774063E-06   0.1644895752E-06  -0.1644895752E-06   0.1334419964E-01   0.2871590444E-02  -0.2871590444E-02   0.3441911755E+03   0.5011215994E+01   0.5011215994E+01   0.2192317582E+01  -0.2192317582E+01   0.1749589501E-13   0.9715018465E-02   0.8517488184E-02   0.1339055780E-01
   0.1013344593E+01   0.9971282451E+00   0.9971282451E+00   0.3934774063E-06  -0.1644895752E-06  -0.1644895752E-06   0.1334419964E-01  -0.2871590444E-02  -0.2871590444E-02   0.3441911754E+03   0.5011215994E+01   0.5011215994E+01  -0.2192317582E+01  -0.2192317582E+01  -0.2560829098E-10   0.9715018465E-02   0.8517488184E-02   0.1339055780E-01
   0.0000000000E+00   0.9971834429E+00   0.9971834429E+00   0.0000000000E+00  -0.2657920405E-06  -0.2657920405E-06   0.0000000000E+00  -0.2816291341E-02  -0.2816291341E-02   0.3527354960E+03   0.1366363058E+02   0.1366363058E+02  -0.2044552971E+01  -0.2044552971E+01   0.2546297229E-10   0.9502338955E-02   0.8329843881E-02   0.1324359174E-01
   0.2027000000E+01   0.3093608991E-02   0.3093608991E-02   0.1000000000E-05   0.6560055691E-07   0.6560055691E-07   0.2699900000E-01   0.3093543390E-02   0.3093543390E-02   0.3356475222E+03  -0.3593298885E+01  -0.3593298885E+01   0.2331182199E+01   0.2331182199E+01   0.8665022681E-10   0.1001731479E-01   0.8781376924E-02   0.1361204360E-01
   0.2027000000E+01   0.9969063910E+00   0.3093608991E-02   0.1000000000E-05  -0.6560055689E-07   0.6560055691E-07   0.2699900000E-01  -0.3093543390E-02   0.3093543390E-02   0.3356475222E+03  -0.3593298885E+01  -0.3593298885E+01  -0.2331182200E+01   0.2331182199E+01  -0.6284475027E-13   0.1001731479E-01   0.8781376924E-02   0.1361204360E-01
   0.2027000000E+01   0.3093608991E-02   0.9969063910E+00   0.1000000000E-05   0.6560055691E-07  -0.6560055689E-07   0.2699900000E-01   0.3093543390E-02  -0.3093543390E-02   0.3356475222E+03  -0.3593298885E+01  -0.3593298885E+01   0.2331182199E+01  -0.2331182200E+01   0.1287043148E-13   0.1001731479E-01   0.8781376924E-02   0.1361204360E-01
   0.2027000000E+01   0.9969063910E+00   0.9969063910E+00   0.1000000000E-05  -0.6560055690E-07  -0.6560055690E-07   0.2699900000E-01  -0.3093543390E-02  -0.3093543390E-02   0.3356475222E+03  -0.3593298885E+01  -0.3593298885E+01  -0.2331182199E+01  -0.2331182199E+01  -0.8670020112E-10   0.1001731479E-01   0.8781376924E-02   0.1361204359E-01
     1     2     3     4     5     6     7     8
     2     9    10     3     6    11    12     7
 VARIABLES = X,Y,Z,DU1,DU2,DU3,U1,U2,U3,S11,S22,S33,S12,S13,S23,OMEGA,EP,E11
 ZONE, T="0.2800D+00" F=FEPOINT, I=   12 J=    2 ET=BRICK
   0.0000000000E+00   0.3098639501E-02   0.3098639501E-02   0.0000000000E+00   0.1649072680E-06   0.1649072680E-06   0.0000000000E+00   0.3098474593E-02   0.3098474593E-02   0.3177057182E+03  -0.2170667767E+02  -0.2170667767E+02   0.8581357240E+00   0.8581357240E+00  -0.8214793839E-10   0.1017479126E-01   0.8914445289E-02   0.1365835460E-01
   0.1013738958E+01   0.3038707055E-02   0.3038707055E-02   0.4781605554E-06   0.1243190692E-06   0.1243190692E-06   0.1373847965E-01   0.3038582736E-02   0.3038582736E-02   0.3324958911E+03  -0.7095326511E+01  -0.7095326511E+01   0.9814024393E+00   0.9814024393E+00  -0.1977206228E-11   0.1034082802E-01   0.9064965587E-02   0.1388420406E-01
   0.1013738958E+01   0.9969612929E+00   0.3038707055E-02   0.4781605554E-06  -0.1243190692E-06   0.1243190692E-06   0.1373847965E-01  -0.3038582736E-02   0.3038582736E-02   0.3324958911E+03  -0.7095326511E+01  -0.7095326511E+01  -0.9814024389E+00   0.9814024392E+00  -0.3048744658E-13   0.1034082802E-01   0.9064965586E-02   0.1388420406E-01
   0.0000000000E+00   0.9969013605E+00   0.3098639501E-02   0.0000000000E+00  -0.1649072680E-06   0.1649072680E-06   0.0000000000E+00  -0.3098474593E-02   0.3098474593E-02   0.3177057182E+03  -0.2170667766E+02  -0.2170667766E+02  -0.8581357236E+00   0.8581357240E+00   0.6370155247E-13   0.1017479126E-01   0.8914445289E-02   0.1365835460E-01
   0.0000000000E+00   0.3098639501E-02   0.9969013605E+00   0.0000000000E+00   0.1649072680E-06  -0.1649072680E-06   0.0000000000E+00   0.3098474593E-02  -0.3098474593E-02   0.3177057182E+03  -0.2170667766E+02  -0.2170667766E+02   0.8581357240E+00  -0.8581357236E+00  -0.2963269290E-14   0.1017479126E-01   0.8914445289E-02   0.1365835460E-01
   0.1013738958E+01   0.3038707055E-02   0.9969612929E+00   0.4781605554E-06   0.1243190692E-06  -0.1243190692E-06   0.1373847965E-01   0.3038582736E-02  -0.3038582736E-02   0.3324958911E+03  -0.7095326511E+01  -0.7095326511E+01   0.9814024392E+00  -0.9814024389E+00  -0.6893159997E-14   0.1034082802E-01   0.9064965586E-02   0.1388420406E-01
   0.1013738958E+01   0.9969612929E+00   0.9969612929E+00   0.4781605554E-06  -0.1243190692E-06  -0.1243190692E-06   0.1373847965E-01  -0.3038582736E-02  -0.3038582736E-02   0.3324958911E+03  -0.7095326511E+01  -0.7095326511E+01  -0.9814024388E+00  -0.9814024388E+00   0.1939825621E-11   0.1034082802E-01   0.9064965586E-02   0.1388420406E-01
   0.0000000000E+00   0.9969013605E+00   0.9969013605E+00   0.0000000000E+00  -0.1649072680E-06  -0.1649072680E-06   0.0000000000E+00  -0.3098474593E-02  -0.3098474593E-02   0.3177057182E+03  -0.2170667766E+02  -0.2170667766E+02  -0.8581357236E+00  -0.8581357236E+00   0.8220867667E-10   0.1017479126E-01   0.8914445289E-02   0.1365835460E-01
   0.2028000000E+01   0.3141344561E-02   0.3141344561E-02   0.1000000000E-05   0.7361418806E-07   0.7361418806E-07   0.2799900000E-01   0.3141270947E-02   0.3141270947E-02   0.3472706767E+03   0.7569534563E+01   0.7569534563E+01   0.1100936314E+01   0.1100936314E+01   0.1054705799E-09   0.1059533690E-01   0.9290163743E-02   0.1418275949E-01
   0.2028000000E+01   0.9968586554E+00   0.3141344561E-02   0.1000000000E-05  -0.7361418805E-07   0.7361418806E-07   0.2799900000E-01  -0.3141270947E-02   0.3141270947E-02   0.3472706767E+03   0.7569534563E+01   0.7569534563E+01  -0.1100936314E+01   0.1100936314E+01  -0.7705365581E-13   0.1059533690E-01   0.9290163743E-02   0.1418275949E-01
   0.2028000000E+01   0.3141344561E-02   0.9968586554E+00   0.1000000000E-05   0.7361418806E-07  -0.7361418805E-07   0.2799900000E-01   0.3141270947E-02  -0.3141270947E-02   0.3472706767E+03   0.7569534563E+01   0.7569534563E+01   0.1100936314E+01  -0.1100936314E+01   0.1183328296E-14   0.1059533690E-01   0.9290163743E-02   0.1418275949E-01
   0.2028000000E+01   0.9968586554E+00   0.9968586554E+00   0.1000000000E-05  -0.7361418805E-07  -0.7361418805E-07   0.2799900000E-01  -0.3141270947E-02  -0.3141270947E-02   0.3472706767E+03   0.7569534563E+01   0.7569534563E+01  -0.1100936314E+01  -0.1100936314E+01  -0.1055464503E-09   0.1059533690E-01   0.9290163743E-02   0.1418275949E-01
     1     2     3     4     5     6     7     8
     2     9    10     3     6    11    12     7
 VARIABLES = X,Y,Z,DU1,DU2,DU3,U1,U2,U3,S11,S22,S33,S12,S13,S23,OMEGA,EP,E11
 ZONE, T="0.2900D+00" F=FEPOINT, I=   12 J=    2 ET=BRICK
   0.0000000000E+00   0.3102122478E-02   0.3102122478E-02   0.0000000000E+00  -0.4978178573E-07  -0.4978178573E-07   0.0000000000E+00   0.3102172259E-02   0.3102172259E-02   0.3468917000E+03   0.7131332307E+01   0.7131332307E+01   0.1432804296E+01   0.1432804296E+01   0.3468159650E-10   0.1067381478E-01   0.9344359107E-02   0.1423558114E-01
   0.1014342188E+01   0.3120464405E-02   0.3120464405E-02   0.6684080911E-06   0.8418361181E-07   0.8418361181E-07   0.1434151939E-01   0.3120380221E-02   0.3120380221E-02   0.3449352545E+03   0.5039791473E+01   0.5039791473E+01   0.1484090894E+01   0.1484090894E+01   0.2438345748E-10   0.1083383021E-01   0.9495502510E-02   0.1437884434E-01
   0.1014342188E+01   0.9968795356E+00   0.3120464405E-02   0.6684080911E-06  -0.8418361180E-07   0.8418361181E-07   0.1434151939E-01  -0.3120380221E-02   0.3120380221E-02   0.3449352544E+03   0.5039791473E+01   0.5039791472E+01  -0.1484090893E+01   0.1484090894E+01  -0.4706626842E-14   0.1083383021E-01   0.9495502510E-02   0.1437884434E-01
   0.0000000000E+00   0.9968978775E+00   0.3102122478E-02   0.0000000000E+00   0.4978178573E-07  -0.4978178572E-07   0.0000000000E+00  -0.3102172259E-02   0.3102172259E-02   0.3468917000E+03   0.7131332307E+01   0.7131332307E+01  -0.1432804295E+01   0.1432804296E+01   0.8951348378E-13   0.1067381478E-01   0.9344359106E-02   0.1423558114E-01
   0.0000000000E+00   0.3102122478E-02   0.9968978775E+00   0.0000000000E+00  -0.4978178572E-07   0.4978178573E-07   0.0000000000E+00   0.3102172259E-02  -0.3102172259E-02   0.3468917000E+03   0.7131332307E+01   0.7131332307E+01   0.1432804296E+01  -0.1432804295E+01   0.1197789457E-13   0.1067381478E-01   0.9344359106E-02   0.1423558114E-01
   0.1014342188E+01   0.3120464405E-02   0.9968795356E+00   0.6684080911E-06   0.8418361181E-07  -0.8418361180E-07   0.1434151939E-01   0.3120380221E-02  -0.3120380221E-02   0.3449352544E+03   0.5039791472E+01   0.5039791473E+01   0.1484090894E+01  -0.1484090893E+01  -0.7868301201E-14   0.1083383021E-01   0.9495502510E-02   0.1437884434E-01
   0.1014342188E+01   0.9968795356E+00   0.9968795356E+00   0.6684080911E-06  -0.8418361180E-07  -0.8418361180E-07   0.1434151939E-01  -0.3120380221E-02  -0.3120380221E-02   0.3449352544E+03   0.5039791472E+01   0.5039791472E+01  -0.1484090893E+01  -0.1484090893E+01  -0.2439603240E-10   0.1083383021E-01   0.9495502510E-02   0.1437884434E-01
   0.0000000000E+00   0.9968978775E+00   0.9968978775E+00   0.0000000000E+00   0.4978178572E-07   0.4978178572E-07   0.0000000000E+00  -0.3102172259E-02  -0.3102172259E-02   0.3468916999E+03   0.7131332307E+01   0.7131332307E+01  -0.1432804295E+01  -0.1432804295E+01  -0.3458010512E-10   0.1067381478E-01   0.9344359106E-02   0.1423558114E-01
   0.2029000000E+01   0.3286638258E-02   0.3286638258E-02   0.1000000000E-05   0.1997205646E-06   0.1997205646E-06   0.2899900000E-01   0.3286438538E-02   0.3286438538E-02   0.3430836499E+03   0.2940031109E+01   0.2940031109E+01   0.1532835369E+01   0.1532835369E+01   0.4971485033E-10   0.1107139341E-01   0.9712364803E-02   0.1458824404E-01
   0.2029000000E+01   0.9967133617E+00   0.3286638258E-02   0.1000000000E-05  -0.1997205645E-06   0.1997205645E-06   0.2899900000E-01  -0.3286438537E-02   0.3286438538E-02   0.3430836499E+03   0.2940031109E+01   0.2940031109E+01  -0.1532835368E+01   0.1532835369E+01  -0.6260133474E-13   0.1107139340E-01   0.9712364802E-02   0.1458824404E-01
   0.2029000000E+01   0.3286638258E-02   0.9967133617E+00   0.1000000000E-05   0.1997205645E-06  -0.1997205645E-06   0.2899900000E-01   0.3286438538E-02  -0.3286438537E-02   0.3430836499E+03   0.2940031109E+01   0.2940031109E+01   0.1532835369E+01  -0.1532835368E+01   0.1546385802E-14   0.1107139340E-01   0.9712364802E-02   0.1458824404E-01
   0.2029000000E+01   0.9967133617E+00   0.9967133617E+00   0.1000000000E-05  -0.1997205645E-06  -0.1997205645E-06   0.2899900000E-01  -0.3286438537E-02  -0.3286438537E-02   0.3430836499E+03   0.2940031109E+01   0.2940031109E+01  -0.1532835368E+01  -0.1532835368E+01  -0.4977590527E-10   0.1107139340E-01   0.9712364802E-02   0.1458824404E-01
     1     2     3     4     5     6     7     8
     2     9    10     3     6    11    12     7
 VARIABLES = X,Y,Z,DU1,DU2,DU3,U1,U2,U3,S11,S22,S33,S12,S13,S23,OMEGA,EP,E11
 ZONE, T="0.3000D+00" F=FEPOINT, I=   12 J=    2 ET=BRICK
   0.0000000000E+00   0.3219212123E-02   0.3219212123E-02   0.0000000000E+00   0.2935980592E-06   0.2935980592E-06   0.0000000000E+00   0.3218918524E-02   0.3218918524E-02   0.3502731410E+03   0.1002186938E+02   0.1002186938E+02   0.1473189230E+01   0.1473189230E+01   0.5625712376E-10   0.1128186072E-01   0.9889156587E-02   0.1480168657E-01
   0.1014922908E+01   0.3266108649E-02   0.3266108649E-02   0.4647878630E-06   0.1876006520E-06   0.1876006520E-06   0.1492244350E-01   0.3265921048E-02   0.3265921048E-02   0.3402208199E+03  -0.1022737720E+00  -0.1022737720E+00   0.1449160882E+01   0.1449160882E+01  -0.9706110854E-11   0.1141549767E-01   0.1000979445E-01   0.1487382941E-01
   0.1014922908E+01   0.9967338914E+00   0.3266108649E-02   0.4647878630E-06  -0.1876006520E-06   0.1876006520E-06   0.1492244350E-01  -0.3265921048E-02   0.3265921048E-02   0.3402208199E+03  -0.1022737720E+00  -0.1022737719E+00  -0.1449160882E+01   0.1449160882E+01   0.2507572037E-13   0.1141549767E-01   0.1000979445E-01   0.1487382941E-01
   0.0000000000E+00   0.9967807879E+00   0.3219212123E-02   0.0000000000E+00  -0.2935980592E-06   0.2935980592E-06   0.0000000000E+00  -0.3218918524E-02   0.3218918524E-02   0.3502731410E+03   0.1002186938E+02   0.1002186938E+02  -0.1473189229E+01   0.1473189230E+01   0.8528826896E-13   0.1128186072E-01   0.9889156587E-02   0.1480168657E-01
   0.0000000000E+00   0.3219212123E-02   0.9967807879E+00   0.0000000000E+00   0.2935980592E-06  -0.2935980592E-06   0.0000000000E+00   0.3218918524E-02  -0.3218918524E-02   0.3502731410E+03   0.1002186938E+02   0.1002186938E+02   0.1473189230E+01  -0.1473189229E+01   0.9563655085E-14   0.1128186072E-01   0.9889156587E-02   0.1480168657E-01
   0.1014922908E+01   0.3266108649E-02   0.9967338914E+00   0.4647878630E-06   0.1876006520E-06  -0.1876006520E-06   0.1492244350E-01   0.3265921048E-02  -0.3265921048E-02   0.3402208199E+03  -0.1022737719E+00  -0.1022737720E+00   0.1449160882E+01  -0.1449160882E+01  -0.2938874024E-14   0.1141549767E-01   0.1000979445E-01   0.1487382941E-01
   0.1014922908E+01   0.9967338914E+00   0.9967338914E+00   0.4647878630E-06  -0.1876006520E-06  -0.1876006520E-06   0.1492244350E-01  -0.3265921048E-02  -0.3265921048E-02   0.3402208199E+03  -0.1022737720E+00  -0.1022737720E+00  -0.1449160882E+01  -0.1449160882E+01   0.9728247699E-11   0.1141549767E-01   0.1000979445E-01   0.1487382941E-01
   0.0000000000E+00   0.9967807879E+00   0.9967807879E+00   0.0000000000E+00  -0.2935980592E-06  -0.2935980592E-06   0.0000000000E+00  -0.3218918524E-02  -0.3218918524E-02   0.3502731409E+03   0.1002186938E+02   0.1002186938E+02  -0.1473189229E+01  -0.1473189229E+01  -0.5616227183E-10   0.1128186071E-01   0.9889156587E-02   0.1480168657E-01
   0.2030000000E+01   0.3440733015E-02   0.3440733015E-02   0.1000000000E-05   0.6082889997E-07   0.6082889997E-07   0.2999900000E-01   0.3440672186E-02   0.3440672186E-02   0.3302004355E+03  -0.1020303499E+02  -0.1020303499E+02   0.1424722167E+01   0.1424722167E+01  -0.4355203716E-10   0.1161792271E-01   0.1018838748E-01   0.1500313746E-01
   0.2030000000E+01   0.9965592670E+00   0.3440733015E-02   0.1000000000E-05  -0.6082889998E-07   0.6082889997E-07   0.2999900000E-01  -0.3440672186E-02   0.3440672186E-02   0.3302004355E+03  -0.1020303499E+02  -0.1020303499E+02  -0.1424722166E+01   0.1424722167E+01  -0.4148991698E-13   0.1161792271E-01   0.1018838748E-01   0.1500313745E-01
   0.2030000000E+01   0.3440733015E-02   0.9965592670E+00   0.1000000000E-05   0.6082889997E-07  -0.6082889998E-07   0.2999900000E-01   0.3440672186E-02  -0.3440672186E-02   0.3302004355E+03  -0.1020303499E+02  -0.1020303499E+02   0.1424722167E+01  -0.1424722166E+01   0.6233193671E-14   0.1161792271E-01   0.1018838748E-01   0.1500313745E-01
   0.2030000000E+01   0.9965592670E+00   0.9965592670E+00   0.1000000000E-05  -0.6082889998E-07  -0.6082889998E-07   0.2999900000E-01  -0.3440672186E-02  -0.3440672186E-02   0.3302004355E+03  -0.1020303499E+02  -0.1020303499E+02  -0.1424722166E+01  -0.1424722166E+01   0.4351678043E-10   0.1161792271E-01   0.1018838748E-01   0.1500313745E-01
     1     2     3     4     5     6     7     8
     2     9    10     3     6    11    12     7
 VARIABLES = X,Y,Z,DU1,DU2,DU3,U1,U2,U3,S11,S22,S33,S12,S13,S23,OMEGA,EP,E11
 ZONE, T="0.3100D+00" F=FEPOINT, I=   12 J=    2 ET=BRICK
   0.0000000000E+00   0.3498247716E-02   0.3498247716E-02   0.0000000000E+00   0.1567896894E-06   0.1567896894E-06   0.0000000000E+00   0.3498090927E-02   0.3498090927E-02   0.3223044257E+03  -0.1837978158E+02  -0.1837978158E+02   0.1930965153E+00   0.1930965153E+00  -0.1320503269E-10   0.1197780559E-01   0.1049365963E-01   0.1527196933E-01
   0.1015369728E+01   0.3410303899E-02   0.3410303899E-02   0.5126055211E-06   0.8274914193E-07   0.8274914193E-07   0.1536921515E-01   0.3410221150E-02   0.3410221150E-02   0.3357472607E+03  -0.4944417592E+01  -0.4944417592E+01   0.1069869874E+00   0.1069869874E+00  -0.3465072918E-10   0.1200493536E-01   0.1052310075E-01   0.1536850322E-01
   0.1015369728E+01   0.9965896961E+00   0.3410303899E-02   0.5126055211E-06  -0.8274914193E-07   0.8274914193E-07   0.1536921515E-01  -0.3410221149E-02   0.3410221150E-02   0.3357472607E+03  -0.4944417591E+01  -0.4944417591E+01  -0.1069869878E+00   0.1069869874E+00   0.2026576111E-13   0.1200493536E-01   0.1052310075E-01   0.1536850322E-01
   0.0000000000E+00   0.9965017523E+00   0.3498247716E-02   0.0000000000E+00  -0.1567896894E-06   0.1567896894E-06   0.0000000000E+00  -0.3498090926E-02   0.3498090927E-02   0.3223044257E+03  -0.1837978158E+02  -0.1837978158E+02  -0.1930965156E+00   0.1930965153E+00   0.2169358373E-13   0.1197780559E-01   0.1049365963E-01   0.1527196933E-01
   0.0000000000E+00   0.3498247716E-02   0.9965017523E+00   0.0000000000E+00   0.1567896894E-06  -0.1567896894E-06   0.0000000000E+00   0.3498090927E-02  -0.3498090926E-02   0.3223044257E+03  -0.1837978158E+02  -0.1837978158E+02   0.1930965153E+00  -0.1930965156E+00  -0.3272624913E-13   0.1197780559E-01   0.1049365963E-01   0.1527196933E-01
   0.1015369728E+01   0.3410303899E-02   0.9965896961E+00   0.5126055211E-06   0.8274914193E-07  -0.8274914193E-07   0.1536921515E-01   0.3410221150E-02  -0.3410221149E-02   0.3357472607E+03  -0.4944417591E+01  -0.4944417591E+01   0.1069869874E+00  -0.1069869878E+00  -0.1545096050E-13   0.1200493536E-01   0.1052310075E-01   0.1536850322E-01
   0.1015369728E+01   0.9965896961E+00   0.9965896961E+00   0.5126055211E-06  -0.8274914193E-07  -0.8274914193E-07   0.1536921515E-01  -0.3410221149E-02  -0.3410221149E-02   0.3357472607E+03  -0.4944417591E+01  -0.4944417591E+01  -0.1069869878E+00  -0.1069869878E+00   0.3465554398E-10   0.1200493536E-01   0.1052310075E-01   0.1536850322E-01
   0.0000000000E+00   0.9965017523E+00   0.9965017523E+00   0.0000000000E+00  -0.1567896894E-06  -0.1567896894E-06   0.0000000000E+00  -0.3498090926E-02  -0.3498090926E-02   0.3223044257E+03  -0.1837978158E+02  -0.1837978158E+02  -0.1930965156E+00  -0.1930965156E+00   0.1319400002E-10   0.1197780559E-01   0.1049365963E-01   0.1527196933E-01
   0.2031000000E+01   0.3430484089E-02   0.3430484089E-02   0.1000000000E-05  -0.8808420217E-08  -0.8808420217E-08   0.3099900000E-01   0.3430492897E-02   0.3430492897E-02   0.3491590002E+03   0.8540458092E+01   0.8540458092E+01   0.2018753124E-01   0.2018753124E-01  -0.3795841000E-10   0.1209231319E-01   0.1060274420E-01   0.1551343374E-01
   0.2031000000E+01   0.9965695159E+00   0.3430484089E-02   0.1000000000E-05   0.8808420205E-08  -0.8808420216E-08   0.3099900000E-01  -0.3430492897E-02   0.3430492897E-02   0.3491590002E+03   0.8540458092E+01   0.8540458092E+01  -0.2018753147E-01   0.2018753124E-01  -0.3265048066E-13   0.1209231319E-01   0.1060274420E-01   0.1551343374E-01
   0.2031000000E+01   0.3430484089E-02   0.9965695159E+00   0.1000000000E-05  -0.8808420216E-08   0.8808420205E-08   0.3099900000E-01   0.3430492897E-02  -0.3430492897E-02   0.3491590002E+03   0.8540458092E+01   0.8540458092E+01   0.2018753124E-01  -0.2018753147E-01   0.9666791797E-14   0.1209231319E-01   0.1060274420E-01   0.1551343374E-01
   0.2031000000E+01   0.9965695159E+00   0.9965695159E+00   0.1000000000E-05   0.8808420203E-08   0.8808420203E-08   0.3099900000E-01  -0.3430492897E-02  -0.3430492897E-02   0.3491590002E+03   0.8540458091E+01   0.8540458091E+01  -0.2018753147E-01  -0.2018753147E-01   0.3793542630E-10   0.1209231319E-01   0.1060274420E-01   0.1551343374E-01
     1     2     3     4     5     6     7     8
     2     9    10     3     6    11    12     7
 VARIABLES = X,Y,Z,DU1,DU2,DU3,U1,U2,U3,S11,S22,S33,S12,S13,S23,OMEGA,EP,E11
 ZONE, T="0.3200D+00" F=FEPOINT, I=   12 J=    2 ET=BRICK
   0.0000000000E+00   0.3532635484E-02   0.3532635484E-02   0.0000000000E+00   0.1128581000E-07   0.1128581000E-07   0.0000000000E+00   0.3532624198E-02   0.3532624198E-02   0.3491235913E+03   0.8289045441E+01   0.8289045441E+01   0.5744277416E+00   0.5744277416E+00   0.4878879115E-10   0.1253091942E-01   0.1097381022E-01   0.1588584491E-01
   0.1016004186E+01   0.3492229220E-02   0.3492229220E-02   0.7039137712E-06   0.1254675924E-06   0.1254675924E-06   0.1600348196E-01   0.3492103753E-02   0.3492103753E-02   0.3479851082E+03   0.7056199712E+01   0.7056199712E+01   0.4412250434E+00   0.4412250434E+00  -0.1154021624E-11   0.1249604525E-01   0.1095438632E-01   0.1586229631E-01
   0.1016004186E+01   0.9965077708E+00   0.3492229220E-02   0.7039137712E-06  -0.1254675924E-06   0.1254675924E-06   0.1600348196E-01  -0.3492103753E-02   0.3492103753E-02   0.3479851082E+03   0.7056199711E+01   0.7056199711E+01  -0.4412250441E+00   0.4412250433E+00  -0.8699957403E-15   0.1249604525E-01   0.1095438632E-01   0.1586229631E-01
   0.0000000000E+00   0.9964673645E+00   0.3532635484E-02   0.0000000000E+00  -0.1128580999E-07   0.1128581000E-07   0.0000000000E+00  -0.3532624198E-02   0.3532624198E-02   0.3491235913E+03   0.8289045441E+01   0.8289045441E+01  -0.5744277421E+00   0.5744277416E+00  -0.5277726646E-13   0.1253091942E-01   0.1097381022E-01   0.1588584491E-01
   0.0000000000E+00   0.3532635484E-02   0.9964673645E+00   0.0000000000E+00   0.1128581000E-07  -0.1128580999E-07   0.0000000000E+00   0.3532624198E-02  -0.3532624198E-02   0.3491235913E+03   0.8289045441E+01   0.8289045441E+01   0.5744277416E+00  -0.5744277421E+00  -0.6265798565E-13   0.1253091942E-01   0.1097381022E-01   0.1588584491E-01
   0.1016004186E+01   0.3492229220E-02   0.9965077708E+00   0.7039137712E-06   0.1254675924E-06  -0.1254675924E-06   0.1600348196E-01   0.3492103753E-02  -0.3492103753E-02   0.3479851082E+03   0.7056199711E+01   0.7056199711E+01   0.4412250433E+00  -0.4412250441E+00  -0.2266176266E-13   0.1249604525E-01   0.1095438632E-01   0.1586229631E-01
   0.1016004186E+01   0.9965077708E+00   0.9965077708E+00   0.7039137712E-06  -0.1254675924E-06  -0.1254675924E-06   0.1600348196E-01  -0.3492103753E-02  -0.3492103753E-02   0.3479851082E+03   0.7056199711E+01   0.7056199711E+01  -0.4412250441E+00  -0.4412250441E+00   0.1130489866E-11   0.1249604525E-01   0.1095438632E-01   0.1586229631E-01
   0.0000000000E+00   0.9964673645E+00   0.9964673645E+00   0.0000000000E+00  -0.1128581000E-07  -0.1128581000E-07   0.0000000000E+00  -0.3532624198E-02  -0.3532624198E-02   0.3491235913E+03   0.8289045441E+01   0.8289045441E+01  -0.5744277421E+00  -0.5744277421E+00  -0.4890422640E-10   0.1253091942E-01   0.1097381022E-01   0.1588584491E-01
   0.2032000000E+01   0.3546196390E-02   0.3546196390E-02   0.1000000000E-05   0.2302890868E-06   0.2302890868E-06   0.3199900000E-01   0.3545966101E-02   0.3545966101E-02   0.3468151417E+03   0.5870415067E+01   0.5870415067E+01   0.3080641190E+00   0.3080641190E+00  -0.5092075998E-10   0.1251413735E-01   0.1097890726E-01   0.1588099270E-01
   0.2032000000E+01   0.9964538036E+00   0.3546196390E-02   0.1000000000E-05  -0.2302890868E-06   0.2302890868E-06   0.3199900000E-01  -0.3545966101E-02   0.3545966101E-02   0.3468151417E+03   0.5870415067E+01   0.5870415067E+01  -0.3080641195E+00   0.3080641190E+00  -0.1779302721E-13   0.1251413735E-01   0.1097890726E-01   0.1588099270E-01
   0.2032000000E+01   0.3546196390E-02   0.9964538036E+00   0.1000000000E-05   0.2302890868E-06  -0.2302890868E-06   0.3199900000E-01   0.3545966101E-02  -0.3545966101E-02   0.3468151417E+03   0.5870415067E+01   0.5870415067E+01   0.3080641190E+00  -0.3080641195E+00   0.3110683151E-13   0.1251413735E-01   0.1097890726E-01   0.1588099270E-01
   0.2032000000E+01   0.9964538036E+00   0.9964538036E+00   0.1000000000E-05  -0.2302890868E-06  -0.2302890868E-06   0.3199900000E-01  -0.3545966101E-02  -0.3545966101E-02   0.3468151417E+03   0.5870415066E+01   0.5870415066E+01  -0.3080641195E+00  -0.3080641195E+00   0.5093407378E-10   0.1251413735E-01   0.1097890725E-01   0.1588099270E-01
     1     2     3     4     5     6     7     8
     2     9    10     3     6    11    12     7
 VARIABLES = X,Y,Z,DU1,DU2,DU3,U1,U2,U3,S11,S22,S33,S12,S13,S23,OMEGA,EP,E11
 ZONE, T="0.3300D+00" F=FEPOINT, I=   12 J=    2 ET=BRICK
   0.0000000000E+00   0.3680530179E-02   0.3680530179E-02   0.0000000000E+00   0.2765814441E-06   0.2765814441E-06   0.0000000000E+00   0.3680253597E-02   0.3680253597E-02   0.3477778893E+03   0.6474073733E+01   0.6474073733E+01   0.6307193183E+00   0.6307193183E+00   0.1625214291E-10   0.1321144031E-01   0.1158114762E-01   0.1649100090E-01
   0.1016623395E+01   0.3659190930E-02   0.3659190930E-02   0.4979474890E-06   0.1630412497E-06   0.1630412497E-06   0.1662289718E-01   0.3659027889E-02   0.3659027889E-02   0.3361506045E+03  -0.5122579629E+01  -0.5122579629E+01   0.5046504167E+00   0.5046504167E+00  -0.2196454514E-10   0.1311771859E-01   0.1150198393E-01   0.1635478700E-01
   0.1016623395E+01   0.9963408091E+00   0.3659190930E-02   0.4979474890E-06  -0.1630412497E-06   0.1630412497E-06   0.1662289718E-01  -0.3659027889E-02   0.3659027889E-02   0.3361506045E+03  -0.5122579628E+01  -0.5122579628E+01  -0.5046504170E+00   0.5046504167E+00  -0.3852132245E-14   0.1311771859E-01   0.1150198393E-01   0.1635478700E-01
   0.0000000000E+00   0.9963194698E+00   0.3680530179E-02   0.0000000000E+00  -0.2765814441E-06   0.2765814441E-06   0.0000000000E+00  -0.3680253597E-02   0.3680253597E-02   0.3477778892E+03   0.6474073733E+01   0.6474073733E+01  -0.6307193184E+00   0.6307193182E+00  -0.6899768041E-13   0.1321144031E-01   0.1158114762E-01   0.1649100090E-01
   0.0000000000E+00   0.3680530179E-02   0.9963194698E+00   0.0000000000E+00   0.2765814441E-06  -0.2765814441E-06   0.0000000000E+00   0.3680253597E-02  -0.3680253597E-02   0.3477778892E+03   0.6474073733E+01   0.6474073733E+01   0.6307193182E+00  -0.6307193184E+00  -0.2489318324E-13   0.1321144031E-01   0.1158114762E-01   0.1649100090E-01
   0.1016623395E+01   0.3659190930E-02   0.9963408091E+00   0.4979474890E-06   0.1630412497E-06  -0.1630412497E-06   0.1662289718E-01   0.3659027889E-02  -0.3659027889E-02   0.3361506045E+03  -0.5122579628E+01  -0.5122579628E+01   0.5046504167E+00  -0.5046504170E+00   0.4464482841E-14   0.1311771859E-01   0.1150198393E-01   0.1635478700E-01
   0.1016623395E+01   0.9963408091E+00   0.9963408091E+00   0.4979474891E-06  -0.1630412497E-06  -0.1630412497E-06   0.1662289718E-01  -0.3659027889E-02  -0.3659027889E-02   0.3361506045E+03  -0.5122579628E+01  -0.5122579628E+01  -0.5046504170E+00  -0.5046504170E+00   0.2196515749E-10   0.1311771859E-01   0.1150198392E-01   0.1635478700E-01
   0.0000000000E+00   0.9963194698E+00   0.9963194698E+00   0.0000000000E+00  -0.2765814441E-06  -0.2765814441E-06   0.0000000000E+00  -0.3680253597E-02  -0.3680253597E-02   0.3477778892E+03   0.6474073732E+01   0.6474073732E+01  -0.6307193184E+00  -0.6307193184E+00  -0.1634603378E-10   0.1321144031E-01   0.1158114762E-01   0.1649100090E-01
   0.2033000000E+01   0.3727799745E-02   0.3727799745E-02   0.1000000000E-05   0.4990792341E-07   0.4990792341E-07   0.3299900000E-01   0.3727749837E-02   0.3727749837E-02   0.3246366181E+03  -0.1674548410E+02  -0.1674548410E+02   0.3790746514E+00   0.3790746514E+00  -0.7832180411E-10   0.1307144803E-01   0.1146200605E-01   0.1625884687E-01
   0.2033000000E+01   0.9962722003E+00   0.3727799745E-02   0.1000000000E-05  -0.4990792340E-07   0.4990792341E-07   0.3299900000E-01  -0.3727749837E-02   0.3727749837E-02   0.3246366181E+03  -0.1674548410E+02  -0.1674548410E+02  -0.3790746516E+00   0.3790746514E+00   0.1392383171E-13   0.1307144803E-01   0.1146200605E-01   0.1625884687E-01
   0.2033000000E+01   0.3727799745E-02   0.9962722003E+00   0.1000000000E-05   0.4990792341E-07  -0.4990792340E-07   0.3299900000E-01   0.3727749837E-02  -0.3727749837E-02   0.3246366181E+03  -0.1674548410E+02  -0.1674548410E+02   0.3790746514E+00  -0.3790746516E+00   0.7847160039E-13   0.1307144803E-01   0.1146200605E-01   0.1625884687E-01
   0.2033000000E+01   0.9962722003E+00   0.9962722003E+00   0.1000000000E-05  -0.4990792340E-07  -0.4990792340E-07   0.3299900000E-01  -0.3727749837E-02  -0.3727749837E-02   0.3246366181E+03  -0.1674548410E+02  -0.1674548410E+02  -0.3790746516E+00  -0.3790746516E+00   0.7841419953E-10   0.1307144803E-01   0.1146200605E-01   0.1625884687E-01
     1     2     3     4     5     6     7     8
     2     9    10     3     6    11    12     7
 VARIABLES = X,Y,Z,DU1,DU2,DU3,U1,U2,U3,S11,S22,S33,S12,S13,S23,OMEGA,EP,E11
 ZONE, T="0.3400D+00" F=FEPOINT, I=   12 J=    2 ET=BRICK
   0.0000000000E+00   0.3935850275E-02   0.3935850275E-02   0.0000000000E+00   0.1636400192E-06   0.1636400192E-06   0.0000000000E+00   0.3935686635E-02   0.3935686635E-02   0.3299184720E+03  -0.1189344360E+02  -0.1189344360E+02  -0.6974936145E+00  -0.6974936145E+00  -0.4570430646E-10   0.1386691438E-01   0.1215227532E-01   0.1697837389E-01
   0.1017083852E+01   0.3760249839E-02   0.3760249839E-02   0.5070070479E-06   0.5927917404E-07   0.5927917404E-07   0.1708334480E-01   0.3760190560E-02   0.3760190560E-02   0.3418350250E+03   0.1930856550E+00   0.1930856550E+00  -0.7937578195E+00  -0.7937578195E+00   0.1458821600E-10   0.1364563962E-01   0.1196175107E-01   0.1684603186E-01
   0.1017083852E+01   0.9962397502E+00   0.3760249839E-02   0.5070070479E-06  -0.5927917404E-07   0.5927917405E-07   0.1708334480E-01  -0.3760190560E-02   0.3760190560E-02   0.3418350249E+03   0.1930856550E+00   0.1930856549E+00   0.7937578199E+00  -0.7937578194E+00  -0.4430717464E-14   0.1364563962E-01   0.1196175107E-01   0.1684603186E-01
   0.0000000000E+00   0.9960641497E+00   0.3935850275E-02   0.0000000000E+00  -0.1636400192E-06   0.1636400192E-06   0.0000000000E+00  -0.3935686635E-02   0.3935686635E-02   0.3299184720E+03  -0.1189344360E+02  -0.1189344360E+02   0.6974936147E+00  -0.6974936145E+00  -0.4376825228E-13   0.1386691438E-01   0.1215227532E-01   0.1697837389E-01
   0.0000000000E+00   0.3935850275E-02   0.9960641497E+00   0.0000000000E+00   0.1636400192E-06  -0.1636400192E-06   0.0000000000E+00   0.3935686635E-02  -0.3935686635E-02   0.3299184720E+03  -0.1189344360E+02  -0.1189344360E+02  -0.6974936145E+00   0.6974936147E+00   0.3885609397E-13   0.1386691438E-01   0.1215227532E-01   0.1697837389E-01
   0.1017083852E+01   0.3760249839E-02   0.9962397502E+00   0.5070070479E-06   0.5927917405E-07  -0.5927917404E-07   0.1708334480E-01   0.3760190560E-02  -0.3760190560E-02   0.3418350249E+03   0.1930856549E+00   0.1930856550E+00  -0.7937578194E+00   0.7937578199E+00   0.3414887844E-13   0.1364563962E-01   0.1196175107E-01   0.1684603186E-01
   0.1017083852E+01   0.9962397502E+00   0.9962397502E+00   0.5070070479E-06  -0.5927917404E-07  -0.5927917404E-07   0.1708334480E-01  -0.3760190560E-02  -0.3760190560E-02   0.3418350249E+03   0.1930856549E+00   0.1930856549E+00   0.7937578198E+00   0.7937578198E+00  -0.1455849784E-10   0.1364563962E-01   0.1196175107E-01   0.1684603186E-01
   0.0000000000E+00   0.9960641497E+00   0.9960641497E+00   0.0000000000E+00  -0.1636400192E-06  -0.1636400192E-06   0.0000000000E+00  -0.3935686635E-02  -0.3935686635E-02   0.3299184719E+03  -0.1189344360E+02  -0.1189344360E+02   0.6974936147E+00   0.6974936147E+00   0.4569939430E-10   0.1386691438E-01   0.1215227532E-01   0.1697837389E-01
   0.2034000000E+01   0.3679252826E-02   0.3679252826E-02   0.1000000000E-05  -0.3656174627E-07  -0.3656174627E-07   0.3399900000E-01   0.3679289388E-02   0.3679289388E-02   0.3537208103E+03   0.1232627680E+02   0.1232627680E+02  -0.8928701367E+00  -0.8928701367E+00   0.4503214878E-10   0.1347740393E-01   0.1181529263E-01   0.1675606743E-01
   0.2034000000E+01   0.9963207472E+00   0.3679252826E-02   0.1000000000E-05   0.3656174627E-07  -0.3656174626E-07   0.3399900000E-01  -0.3679289388E-02   0.3679289388E-02   0.3537208103E+03   0.1232627680E+02   0.1232627680E+02   0.8928701369E+00  -0.8928701367E+00   0.1954888943E-13   0.1347740393E-01   0.1181529263E-01   0.1675606743E-01
   0.2034000000E+01   0.3679252826E-02   0.9963207472E+00   0.1000000000E-05  -0.3656174626E-07   0.3656174627E-07   0.3399900000E-01   0.3679289388E-02  -0.3679289388E-02   0.3537208103E+03   0.1232627680E+02   0.1232627680E+02  -0.8928701367E+00   0.8928701369E+00   0.1053700516E-12   0.1347740393E-01   0.1181529263E-01   0.1675606743E-01
   0.2034000000E+01   0.9963207472E+00   0.9963207472E+00   0.1000000000E-05   0.3656174626E-07   0.3656174626E-07   0.3399900000E-01  -0.3679289388E-02  -0.3679289388E-02   0.3537208103E+03   0.1232627680E+02   0.1232627680E+02   0.8928701368E+00   0.8928701368E+00  -0.4490722984E-10   0.1347740393E-01   0.1181529263E-01   0.1675606743E-01
     1     2     3     4     5     6     7     8
     2     9    10     3     6    11    12     7
 VARIABLES = X,Y,Z,DU1,DU2,DU3,U1,U2,U3,S11,S22,S33,S12,S13,S23,OMEGA,EP,E11
 ZONE, T="0.3500D+00" F=FEPOINT, I=   12 J=    2 ET=BRICK
   0.0000000000E+00   0.4015096475E-02   0.4015096475E-02   0.0000000000E+00   0.5767785467E-07   0.5767785467E-07   0.0000000000E+00   0.4015038797E-02   0.4015038797E-02   0.3470634253E+03   0.4978666200E+01   0.4978666200E+01  -0.4150728934E+00  -0.4150728934E+00  -0.1085475360E-10   0.1446457313E-01   0.1267361259E-01   0.1758682961E-01
   0.1017708285E+01   0.3862557745E-02   0.3862557745E-02   0.6978123239E-06   0.1622665934E-06   0.1622665934E-06   0.1770758703E-01   0.3862395478E-02   0.3862395478E-02   0.3466030997E+03   0.4791808942E+01   0.4791808942E+01  -0.4644652066E+00  -0.4644652066E+00   0.3793346258E-10   0.1417299063E-01   0.1242687379E-01   0.1733624601E-01
   0.1017708285E+01   0.9961374423E+00   0.3862557745E-02   0.6978123239E-06  -0.1622665934E-06   0.1622665934E-06   0.1770758703E-01  -0.3862395478E-02   0.3862395478E-02   0.3466030997E+03   0.4791808942E+01   0.4791808942E+01   0.4644652072E+00  -0.4644652066E+00  -0.2610600851E-13   0.1417299063E-01   0.1242687379E-01   0.1733624601E-01
   0.0000000000E+00   0.9959849035E+00   0.4015096475E-02   0.0000000000E+00  -0.5767785467E-07   0.5767785468E-07   0.0000000000E+00  -0.4015038797E-02   0.4015038797E-02   0.3470634253E+03   0.4978666200E+01   0.4978666200E+01   0.4150728938E+00  -0.4150728934E+00  -0.3646014112E-13   0.1446457313E-01   0.1267361259E-01   0.1758682961E-01
   0.0000000000E+00   0.4015096475E-02   0.9959849035E+00   0.0000000000E+00   0.5767785468E-07  -0.5767785467E-07   0.0000000000E+00   0.4015038797E-02  -0.4015038797E-02   0.3470634253E+03   0.4978666200E+01   0.4978666200E+01  -0.4150728934E+00   0.4150728938E+00   0.4900935951E-13   0.1446457313E-01   0.1267361259E-01   0.1758682961E-01
   0.1017708285E+01   0.3862557745E-02   0.9961374423E+00   0.6978123239E-06   0.1622665934E-06  -0.1622665934E-06   0.1770758703E-01   0.3862395478E-02  -0.3862395478E-02   0.3466030997E+03   0.4791808942E+01   0.4791808942E+01  -0.4644652066E+00   0.4644652072E+00   0.1724195348E-13   0.1417299063E-01   0.1242687379E-01   0.1733624601E-01
   0.1017708285E+01   0.9961374423E+00   0.9961374423E+00   0.6978123239E-06  -0.1622665934E-06  -0.1622665934E-06   0.1770758703E-01  -0.3862395478E-02  -0.3862395478E-02   0.3466030997E+03   0.4791808942E+01   0.4791808942E+01   0.4644652072E+00   0.4644652072E+00  -0.3794232663E-10   0.1417299063E-01   0.1242687379E-01   0.1733624601E-01
   0.0000000000E+00   0.9959849035E+00   0.9959849035E+00   0.0000000000E+00  -0.5767785467E-07  -0.5767785467E-07   0.0000000000E+00  -0.4015038797E-02  -0.4015038797E-02   0.3470634253E+03   0.4978666200E+01   0.4978666200E+01   0.4150728937E+00   0.4150728937E+00   0.1086730282E-10   0.1446457313E-01   0.1267361259E-01   0.1758682961E-01
   0.2035000000E+01   0.3816127281E-02   0.3816127281E-02   0.1000000000E-05   0.2807259069E-06   0.2807259069E-06   0.3499900000E-01   0.3815846555E-02   0.3815846555E-02   0.3462428508E+03   0.4589111726E+01   0.4589111726E+01  -0.5160658098E+00  -0.5160658098E+00   0.5541155789E-10   0.1393756486E-01   0.1222697255E-01   0.1713319405E-01
   0.2035000000E+01   0.9961838727E+00   0.3816127281E-02   0.1000000000E-05  -0.2807259069E-06   0.2807259069E-06   0.3499900000E-01  -0.3815846555E-02   0.3815846555E-02   0.3462428508E+03   0.4589111726E+01   0.4589111726E+01   0.5160658102E+00  -0.5160658098E+00  -0.1393282055E-13   0.1393756486E-01   0.1222697255E-01   0.1713319405E-01
   0.2035000000E+01   0.3816127281E-02   0.9961838727E+00   0.1000000000E-05   0.2807259069E-06  -0.2807259069E-06   0.3499900000E-01   0.3815846555E-02  -0.3815846555E-02   0.3462428508E+03   0.4589111726E+01   0.4589111726E+01  -0.5160658098E+00   0.5160658102E+00   0.6893700859E-13   0.1393756486E-01   0.1222697255E-01   0.1713319405E-01
   0.2035000000E+01   0.9961838727E+00   0.9961838727E+00   0.1000000000E-05  -0.2807259069E-06  -0.2807259069E-06   0.3499900000E-01  -0.3815846555E-02  -0.3815846555E-02   0.3462428508E+03   0.4589111726E+01   0.4589111726E+01   0.5160658102E+00   0.5160658102E+00  -0.5535655370E-10   0.1393756486E-01   0.1222697255E-01   0.1713319405E-01
     1     2     3     4     5     6     7     8
     2     9    10     3     6    11    12     7
 VARIABLES = X,Y,Z,DU1,DU2,DU3,U1,U2,U3,S11,S22,S33,S12,S13,S23,OMEGA,EP,E11
 ZONE, T="0.3600D+00" F=FEPOINT, I=   12 J=    2 ET=BRICK
   0.0000000000E+00   0.4150152173E-02   0.4150152173E-02   0.0000000000E+00   0.2143901896E-06   0.2143901896E-06   0.0000000000E+00   0.4149937783E-02   0.4149937783E-02   0.3481216407E+03   0.5660847527E+01   0.5660847527E+01  -0.1761816847E+00  -0.1761816847E+00  -0.1481584990E-10   0.1513270508E-01   0.1326649359E-01   0.1818853791E-01
   0.1018326466E+01   0.4023031503E-02   0.4023031503E-02   0.4945377873E-06   0.1149678251E-06   0.1149678251E-06   0.1832597156E-01   0.4022916535E-02   0.4022916535E-02   0.3351580841E+03  -0.7037483292E+01  -0.7037483292E+01  -0.1615323302E+00  -0.1615323302E+00   0.2503321082E-11   0.1479243805E-01   0.1296924738E-01   0.1782584832E-01
   0.1018326466E+01   0.9959769685E+00   0.4023031503E-02   0.4945377873E-06  -0.1149678251E-06   0.1149678251E-06   0.1832597156E-01  -0.4022916535E-02   0.4022916535E-02   0.3351580841E+03  -0.7037483292E+01  -0.7037483292E+01   0.1615323305E+00  -0.1615323302E+00  -0.3313744056E-13   0.1479243805E-01   0.1296924737E-01   0.1782584832E-01
   0.0000000000E+00   0.9958498478E+00   0.4150152173E-02   0.0000000000E+00  -0.2143901895E-06   0.2143901896E-06   0.0000000000E+00  -0.4149937783E-02   0.4149937783E-02   0.3481216407E+03   0.5660847527E+01   0.5660847527E+01   0.1761816848E+00  -0.1761816847E+00  -0.3630039124E-13   0.1513270508E-01   0.1326649359E-01   0.1818853791E-01
   0.0000000000E+00   0.4150152173E-02   0.9958498478E+00   0.0000000000E+00   0.2143901896E-06  -0.2143901895E-06   0.0000000000E+00   0.4149937783E-02  -0.4149937783E-02   0.3481216407E+03   0.5660847527E+01   0.5660847527E+01  -0.1761816847E+00   0.1761816848E+00   0.9862704288E-14   0.1513270508E-01   0.1326649359E-01   0.1818853791E-01
   0.1018326466E+01   0.4023031503E-02   0.9959769685E+00   0.4945377873E-06   0.1149678251E-06  -0.1149678251E-06   0.1832597156E-01   0.4022916535E-02  -0.4022916535E-02   0.3351580841E+03  -0.7037483292E+01  -0.7037483292E+01  -0.1615323302E+00   0.1615323305E+00  -0.1605874675E-13   0.1479243805E-01   0.1296924737E-01   0.1782584832E-01
   0.1018326466E+01   0.9959769685E+00   0.9959769685E+00   0.4945377873E-06  -0.1149678251E-06  -0.1149678251E-06   0.1832597156E-01  -0.4022916535E-02  -0.4022916535E-02   0.3351580840E+03  -0.7037483291E+01  -0.7037483291E+01   0.1615323305E+00   0.1615323305E+00  -0.2552517269E-11   0.1479243805E-01   0.1296924737E-01   0.1782584832E-01
   0.0000000000E+00   0.9958498478E+00   0.9958498478E+00   0.0000000000E+00  -0.2143901895E-06  -0.2143901895E-06   0.0000000000E+00  -0.4149937783E-02  -0.4149937783E-02   0.3481216407E+03   0.5660847527E+01   0.5660847527E+01   0.1761816848E+00   0.1761816848E+00   0.1478941221E-10   0.1513270508E-01   0.1326649359E-01   0.1818853790E-01
   0.2036000000E+01   0.4016691156E-02   0.4016691156E-02   0.1000000000E-05   0.3017982761E-07   0.3017982761E-07   0.3599900000E-01   0.4016660976E-02   0.4016660976E-02   0.3223086451E+03  -0.1975581229E+02  -0.1975581229E+02  -0.1485233319E+00  -0.1485233319E+00  -0.3102311392E-11   0.1451577548E-01   0.1272527831E-01   0.1751727504E-01
   0.2036000000E+01   0.9959833088E+00   0.4016691156E-02   0.1000000000E-05  -0.3017982762E-07   0.3017982762E-07   0.3599900000E-01  -0.4016660976E-02   0.4016660976E-02   0.3223086451E+03  -0.1975581229E+02  -0.1975581229E+02   0.1485233320E+00  -0.1485233319E+00  -0.3754387969E-13   0.1451577548E-01   0.1272527831E-01   0.1751727504E-01
   0.2036000000E+01   0.4016691156E-02   0.9959833088E+00   0.1000000000E-05   0.3017982762E-07  -0.3017982762E-07   0.3599900000E-01   0.4016660976E-02  -0.4016660976E-02   0.3223086451E+03  -0.1975581229E+02  -0.1975581229E+02  -0.1485233319E+00   0.1485233320E+00   0.1595164196E-13   0.1451577548E-01   0.1272527831E-01   0.1751727504E-01
   0.2036000000E+01   0.9959833088E+00   0.9959833088E+00   0.1000000000E-05  -0.3017982762E-07  -0.3017982762E-07   0.3599900000E-01  -0.4016660976E-02  -0.4016660976E-02   0.3223086451E+03  -0.1975581229E+02  -0.1975581229E+02   0.1485233320E+00   0.1485233320E+00   0.3080719154E-11   0.1451577548E-01   0.1272527831E-01   0.1751727504E-01
     1     2     3     4     5     6     7     8
     2     9    10     3     6    11    12     7
 VARIABLES = X,Y,Z,DU1,DU2,DU3,U1,U2,U3,S11,S22,S33,S12,S13,S23,OMEGA,EP,E11
 ZONE, T="0.3700D+00" F=FEPOINT, I=   12 J=    2 ET=BRICK
   0.0000000000E+00   0.4371973818E-02   0.4371973818E-02   0.0000000000E+00   0.1852123515E-06   0.1852123515E-06   0.0000000000E+00   0.4371788605E-02   0.4371788605E-02   0.3369566471E+03  -0.5585293310E+01  -0.5585293310E+01  -0.1360210345E+01  -0.1360210345E+01  -0.2967040427E-10   0.1572597582E-01   0.1378690135E-01   0.1865417759E-01
   0.1018766912E+01   0.4096856070E-02   0.4096856070E-02   0.4700190681E-06   0.7855751524E-07   0.7855751524E-07   0.1876644210E-01   0.4096777512E-02   0.4096777512E-02   0.3476002090E+03   0.5231192665E+01   0.5231192665E+01  -0.1308401205E+01  -0.1308401205E+01   0.2330493962E-10   0.1527992668E-01   0.1339587418E-01   0.1831543183E-01
   0.1018766912E+01   0.9959031439E+00   0.4096856070E-02   0.4700190681E-06  -0.7855751523E-07   0.7855751524E-07   0.1876644210E-01  -0.4096777512E-02   0.4096777512E-02   0.3476002090E+03   0.5231192664E+01   0.5231192664E+01   0.1308401205E+01  -0.1308401205E+01  -0.5023918485E-14   0.1527992668E-01   0.1339587418E-01   0.1831543183E-01
   0.0000000000E+00   0.9956280262E+00   0.4371973818E-02   0.0000000000E+00  -0.1852123515E-06   0.1852123515E-06   0.0000000000E+00  -0.4371788605E-02   0.4371788605E-02   0.3369566471E+03  -0.5585293310E+01  -0.5585293310E+01   0.1360210344E+01  -0.1360210345E+01  -0.2514050309E-14   0.1572597582E-01   0.1378690135E-01   0.1865417759E-01
   0.0000000000E+00   0.4371973818E-02   0.9956280262E+00   0.0000000000E+00   0.1852123515E-06  -0.1852123515E-06   0.0000000000E+00   0.4371788605E-02  -0.4371788605E-02   0.3369566471E+03  -0.5585293310E+01  -0.5585293310E+01  -0.1360210345E+01   0.1360210344E+01  -0.1024539774E-13   0.1572597582E-01   0.1378690135E-01   0.1865417759E-01
   0.1018766912E+01   0.4096856070E-02   0.9959031439E+00   0.4700190681E-06   0.7855751524E-07  -0.7855751523E-07   0.1876644210E-01   0.4096777512E-02  -0.4096777512E-02   0.3476002090E+03   0.5231192664E+01   0.5231192664E+01  -0.1308401205E+01   0.1308401205E+01  -0.1881158486E-13   0.1527992668E-01   0.1339587418E-01   0.1831543183E-01
   0.1018766912E+01   0.9959031439E+00   0.9959031439E+00   0.4700190681E-06  -0.7855751523E-07  -0.7855751523E-07   0.1876644210E-01  -0.4096777512E-02  -0.4096777512E-02   0.3476002090E+03   0.5231192664E+01   0.5231192664E+01   0.1308401205E+01   0.1308401205E+01  -0.2332877512E-10   0.1527992668E-01   0.1339587418E-01   0.1831543183E-01
   0.0000000000E+00   0.9956280262E+00   0.9956280262E+00   0.0000000000E+00  -0.1852123515E-06  -0.1852123515E-06   0.0000000000E+00  -0.4371788605E-02  -0.4371788605E-02   0.3369566471E+03  -0.5585293310E+01  -0.5585293310E+01   0.1360210344E+01   0.1360210344E+01   0.2965764482E-10   0.1572597582E-01   0.1378690135E-01   0.1865417759E-01
   0.2037000000E+01   0.3955639817E-02   0.3955639817E-02   0.1000000000E-05  -0.1703228649E-07  -0.1703228649E-07   0.3699900000E-01   0.3955656849E-02   0.3955656849E-02   0.3583178121E+03   0.1605134950E+02   0.1605134950E+02  -0.1256502882E+01  -0.1256502882E+01   0.6917787073E-10   0.1490501239E-01   0.1306493542E-01   0.1803672771E-01
   0.2037000000E+01   0.9960443602E+00   0.3955639817E-02   0.1000000000E-05   0.1703228648E-07  -0.1703228648E-07   0.3699900000E-01  -0.3955656849E-02   0.3955656849E-02   0.3583178121E+03   0.1605134950E+02   0.1605134950E+02   0.1256502882E+01  -0.1256502882E+01  -0.2379459084E-13   0.1490501239E-01   0.1306493542E-01   0.1803672771E-01
   0.2037000000E+01   0.3955639817E-02   0.9960443602E+00   0.1000000000E-05  -0.1703228648E-07   0.1703228648E-07   0.3699900000E-01   0.3955656849E-02  -0.3955656849E-02   0.3583178121E+03   0.1605134950E+02   0.1605134950E+02  -0.1256502882E+01   0.1256502882E+01   0.7116122351E-14   0.1490501239E-01   0.1306493542E-01   0.1803672771E-01
   0.2037000000E+01   0.9960443602E+00   0.9960443602E+00   0.1000000000E-05   0.1703228647E-07   0.1703228647E-07   0.3699900000E-01  -0.3955656849E-02  -0.3955656849E-02   0.3583178121E+03   0.1605134950E+02   0.1605134950E+02   0.1256502882E+01   0.1256502882E+01  -0.6919454919E-10   0.1490501239E-01   0.1306493542E-01   0.1803672771E-01
     1     2     3     4     5     6     7     8
     2     9    10     3     6    11    12     7
 VARIABLES = X,Y,Z,DU1,DU2,DU3,U1,U2,U3,S11,S22,S33,S12,S13,S23,OMEGA,EP,E11
 ZONE, T="0.3800D+00" F=FEPOINT, I=   12 J=    2 ET=BRICK
   0.0000000000E+00   0.4485554573E-02   0.4485554573E-02   0.0000000000E+00   0.5812479458E-07   0.5812479458E-07   0.0000000000E+00   0.4485496448E-02   0.4485496448E-02   0.3415148987E+03  -0.1460954554E+01  -0.1460954554E+01  -0.9708377641E+00  -0.9708377641E+00  -0.5461583649E-12   0.1634671065E-01   0.1432801473E-01   0.1922187436E-01
   0.1019351543E+01   0.4236636311E-02   0.4236636311E-02   0.6640370030E-06   0.1797702657E-06   0.1797702657E-06   0.1935087859E-01   0.4236456540E-02   0.4236456540E-02   0.3422437801E+03  -0.4176885384E+00  -0.4176885384E+00  -0.8990760692E+00  -0.8990760692E+00  -0.1257520708E-10   0.1586205568E-01   0.1390939241E-01   0.1880527065E-01
   0.1019351543E+01   0.9957633637E+00   0.4236636311E-02   0.6640370029E-06  -0.1797702657E-06   0.1797702657E-06   0.1935087859E-01  -0.4236456540E-02   0.4236456540E-02   0.3422437801E+03  -0.4176885383E+00  -0.4176885383E+00   0.8990760687E+00  -0.8990760692E+00   0.3141933774E-13   0.1586205568E-01   0.1390939241E-01   0.1880527065E-01
   0.0000000000E+00   0.9955144454E+00   0.4485554572E-02   0.0000000000E+00  -0.5812479458E-07   0.5812479459E-07   0.0000000000E+00  -0.4485496448E-02   0.4485496448E-02   0.3415148987E+03  -0.1460954554E+01  -0.1460954554E+01   0.9708377637E+00  -0.9708377641E+00   0.4091657037E-13   0.1634671065E-01   0.1432801473E-01   0.1922187436E-01
   0.0000000000E+00   0.4485554572E-02   0.9955144454E+00   0.0000000000E+00   0.5812479459E-07  -0.5812479458E-07   0.0000000000E+00   0.4485496448E-02  -0.4485496448E-02   0.3415148987E+03  -0.1460954554E+01  -0.1460954554E+01  -0.9708377641E+00   0.9708377637E+00  -0.7406318154E-15   0.1634671065E-01   0.1432801473E-01   0.1922187436E-01
   0.1019351543E+01   0.4236636311E-02   0.9957633637E+00   0.6640370029E-06   0.1797702657E-06  -0.1797702657E-06   0.1935087859E-01   0.4236456540E-02  -0.4236456540E-02   0.3422437801E+03  -0.4176885383E+00  -0.4176885383E+00  -0.8990760692E+00   0.8990760687E+00   0.7437093066E-15   0.1586205568E-01   0.1390939241E-01   0.1880527065E-01
   0.1019351543E+01   0.9957633637E+00   0.9957633637E+00   0.6640370029E-06  -0.1797702657E-06  -0.1797702657E-06   0.1935087859E-01  -0.4236456540E-02  -0.4236456540E-02   0.3422437801E+03  -0.4176885383E+00  -0.4176885383E+00   0.8990760686E+00   0.8990760686E+00   0.1260737012E-10   0.1586205567E-01   0.1390939241E-01   0.1880527065E-01
   0.0000000000E+00   0.9955144454E+00   0.9955144454E+00   0.0000000000E+00  -0.5812479459E-07  -0.5812479459E-07   0.0000000000E+00  -0.4485496448E-02  -0.4485496448E-02   0.3415148987E+03  -0.1460954554E+01  -0.1460954554E+01   0.9708377637E+00   0.9708377637E+00   0.5863343034E-12   0.1634671065E-01   0.1432801473E-01   0.1922187436E-01
   0.2038000000E+01   0.4129909731E-02   0.4129909731E-02   0.1000000000E-05   0.3067000791E-06   0.3067000791E-06   0.3799900000E-01   0.4129603031E-02   0.4129603031E-02   0.3431479291E+03   0.5810169036E+00   0.5810169036E+00  -0.8273328867E+00  -0.8273328867E+00  -0.1461007187E-10   0.1545048861E-01   0.1355273880E-01   0.1845243410E-01
   0.2038000000E+01   0.9958700903E+00   0.4129909731E-02   0.1000000000E-05  -0.3067000791E-06   0.3067000791E-06   0.3799900000E-01  -0.4129603031E-02   0.4129603031E-02   0.3431479291E+03   0.5810169035E+00   0.5810169036E+00   0.8273328862E+00  -0.8273328866E+00   0.1002936221E-14   0.1545048861E-01   0.1355273880E-01   0.1845243410E-01
   0.2038000000E+01   0.4129909731E-02   0.9958700903E+00   0.1000000000E-05   0.3067000791E-06  -0.3067000791E-06   0.3799900000E-01   0.4129603031E-02  -0.4129603031E-02   0.3431479291E+03   0.5810169036E+00   0.5810169035E+00  -0.8273328866E+00   0.8273328862E+00   0.2286749274E-13   0.1545048861E-01   0.1355273880E-01   0.1845243410E-01
   0.2038000000E+01   0.9958700903E+00   0.9958700903E+00   0.1000000000E-05  -0.3067000791E-06  -0.3067000791E-06   0.3799900000E-01  -0.4129603031E-02  -0.4129603031E-02   0.3431479291E+03   0.5810169035E+00   0.5810169035E+00   0.8273328861E+00   0.8273328861E+00   0.1463394230E-10   0.1545048861E-01   0.1355273880E-01   0.1845243410E-01
     1     2     3     4     5     6     7     8
     2     9    10     3     6    11    12     7
 VARIABLES = X,Y,Z,DU1,DU2,DU3,U1,U2,U3,S11,S22,S33,S12,S13,S23,OMEGA,EP,E11
 ZONE, T="0.3900D+00" F=FEPOINT, I=   12 J=    2 ET=BRICK
   0.0000000000E+00   0.4563711170E-02   0.4563711170E-02   0.0000000000E+00   0.1368380276E-06   0.1368380276E-06   0.0000000000E+00   0.4563574331E-02   0.4563574331E-02   0.3520196031E+03   0.8777814447E+01   0.8777814447E+01  -0.4092467296E+00  -0.4092467296E+00   0.4221758136E-10   0.1692989308E-01   0.1484295392E-01   0.1979126933E-01
   0.1019945117E+01   0.4372303146E-02   0.4372303146E-02   0.4724294466E-06   0.7624980058E-07   0.7624980058E-07   0.1994464476E-01   0.4372226896E-02   0.4372226896E-02   0.3383995081E+03  -0.4596564207E+01  -0.4596564207E+01  -0.3373406712E+00  -0.3373406712E+00  -0.3346667512E-10   0.1644281059E-01   0.1441548575E-01   0.1929556045E-01
   0.1019945117E+01   0.9956276969E+00   0.4372303146E-02   0.4724294466E-06  -0.7624980058E-07   0.7624980059E-07   0.1994464476E-01  -0.4372226896E-02   0.4372226896E-02   0.3383995081E+03  -0.4596564207E+01  -0.4596564207E+01   0.3373406710E+00  -0.3373406712E+00   0.2069209826E-13   0.1644281059E-01   0.1441548575E-01   0.1929556045E-01
   0.0000000000E+00   0.9954362888E+00   0.4563711170E-02   0.0000000000E+00  -0.1368380276E-06   0.1368380276E-06   0.0000000000E+00  -0.4563574331E-02   0.4563574331E-02   0.3520196031E+03   0.8777814446E+01   0.8777814446E+01   0.4092467294E+00  -0.4092467296E+00   0.4508167090E-13   0.1692989308E-01   0.1484295392E-01   0.1979126933E-01
   0.0000000000E+00   0.4563711170E-02   0.9954362888E+00   0.0000000000E+00   0.1368380276E-06  -0.1368380276E-06   0.0000000000E+00   0.4563574331E-02  -0.4563574331E-02   0.3520196031E+03   0.8777814446E+01   0.8777814446E+01  -0.4092467296E+00   0.4092467294E+00   0.6268131121E-14   0.1692989308E-01   0.1484295392E-01   0.1979126933E-01
   0.1019945117E+01   0.4372303146E-02   0.9956276969E+00   0.4724294466E-06   0.7624980059E-07  -0.7624980058E-07   0.1994464476E-01   0.4372226896E-02  -0.4372226896E-02   0.3383995081E+03  -0.4596564207E+01  -0.4596564207E+01  -0.3373406712E+00   0.3373406710E+00  -0.1738397964E-14   0.1644281059E-01   0.1441548575E-01   0.1929556045E-01
   0.1019945117E+01   0.9956276969E+00   0.9956276969E+00   0.4724294466E-06  -0.7624980058E-07  -0.7624980058E-07   0.1994464476E-01  -0.4372226896E-02  -0.4372226896E-02   0.3383995081E+03  -0.4596564207E+01  -0.4596564207E+01   0.3373406710E+00   0.3373406710E+00   0.3348562882E-10   0.1644281058E-01   0.1441548575E-01   0.1929556045E-01
   0.0000000000E+00   0.9954362888E+00   0.9954362888E+00   0.0000000000E+00  -0.1368380276E-06  -0.1368380276E-06   0.0000000000E+00  -0.4563574331E-02  -0.4563574331E-02   0.3520196031E+03   0.8777814446E+01   0.8777814446E+01   0.4092467294E+00   0.4092467294E+00  -0.4216623155E-10   0.1692989308E-01   0.1484295392E-01   0.1979126933E-01
   0.2039000000E+01   0.4325105432E-02   0.4325105432E-02   0.1000000000E-05   0.1445072022E-07   0.1445072022E-07   0.3899900000E-01   0.4325090981E-02   0.4325090981E-02   0.3248641508E+03  -0.1797112987E+02  -0.1797112987E+02  -0.2659195849E+00  -0.2659195849E+00  -0.8584592554E-10   0.1603231455E-01   0.1405261596E-01   0.1886452855E-01
   0.2039000000E+01   0.9956748946E+00   0.4325105432E-02   0.1000000000E-05  -0.1445072021E-07   0.1445072022E-07   0.3899900000E-01  -0.4325090981E-02   0.4325090981E-02   0.3248641508E+03  -0.1797112987E+02  -0.1797112987E+02   0.2659195847E+00  -0.2659195849E+00  -0.1891182213E-13   0.1603231455E-01   0.1405261596E-01   0.1886452855E-01
   0.2039000000E+01   0.4325105432E-02   0.9956748946E+00   0.1000000000E-05   0.1445072022E-07  -0.1445072021E-07   0.3899900000E-01   0.4325090981E-02  -0.4325090981E-02   0.3248641508E+03  -0.1797112987E+02  -0.1797112987E+02  -0.2659195849E+00   0.2659195847E+00   0.1264606239E-13   0.1603231455E-01   0.1405261596E-01   0.1886452855E-01
   0.2039000000E+01   0.9956748946E+00   0.9956748946E+00   0.1000000000E-05  -0.1445072022E-07  -0.1445072022E-07   0.3899900000E-01  -0.4325090981E-02  -0.4325090981E-02   0.3248641507E+03  -0.1797112987E+02  -0.1797112987E+02   0.2659195847E+00   0.2659195847E+00   0.8583965977E-10   0.1603231455E-01   0.1405261596E-01   0.1886452855E-01
     1     2     3     4     5     6     7     8
     2     9    10     3     6    11    12     7
 VARIABLES = X,Y,Z,DU1,DU2,DU3,U1,U2,U3,S11,S22,S33,S12,S13,S23,OMEGA,EP,E11
 ZONE, T="0.4000D+00" F=FEPOINT, I=   12 J=    2 ET=BRICK
   0.0000000000E+00   0.4764202523E-02   0.4764202523E-02   0.0000000000E+00   0.2195265128E-06   0.2195265128E-06   0.0000000000E+00   0.4763982997E-02   0.4763982997E-02   0.3405644587E+03  -0.2799530681E+01  -0.2799530681E+01  -0.1345100400E+01  -0.1345100400E+01   0.2474666555E-10   0.1747412716E-01   0.1532382241E-01   0.2021640725E-01
   0.1020351284E+01   0.4452748004E-02   0.4452748004E-02   0.4221722517E-06   0.1276007964E-06   0.1276007964E-06   0.2035086143E-01   0.4452620403E-02   0.4452620403E-02   0.3501617086E+03   0.6988196998E+01   0.6988196998E+01  -0.1305905860E+01  -0.1305905860E+01  -0.2882010874E-12   0.1693241951E-01   0.1484667393E-01   0.1978636405E-01
   0.1020351284E+01   0.9955472520E+00   0.4452748004E-02   0.4221722517E-06  -0.1276007964E-06   0.1276007964E-06   0.2035086143E-01  -0.4452620403E-02   0.4452620403E-02   0.3501617086E+03   0.6988196998E+01   0.6988196998E+01   0.1305905861E+01  -0.1305905860E+01  -0.1624764754E-13   0.1693241951E-01   0.1484667393E-01   0.1978636405E-01
   0.0000000000E+00   0.9952357975E+00   0.4764202523E-02   0.0000000000E+00  -0.2195265128E-06   0.2195265128E-06   0.0000000000E+00  -0.4763982996E-02   0.4763982997E-02   0.3405644587E+03  -0.2799530681E+01  -0.2799530681E+01   0.1345100400E+01  -0.1345100400E+01   0.1992949664E-13   0.1747412716E-01   0.1532382241E-01   0.2021640725E-01
   0.0000000000E+00   0.4764202523E-02   0.9952357975E+00   0.0000000000E+00   0.2195265128E-06  -0.2195265128E-06   0.0000000000E+00   0.4763982997E-02  -0.4763982996E-02   0.3405644587E+03  -0.2799530681E+01  -0.2799530681E+01  -0.1345100400E+01   0.1345100400E+01   0.1437651522E-13   0.1747412716E-01   0.1532382241E-01   0.2021640725E-01
   0.1020351284E+01   0.4452748004E-02   0.9955472520E+00   0.4221722517E-06   0.1276007964E-06  -0.1276007964E-06   0.2035086143E-01   0.4452620403E-02  -0.4452620403E-02   0.3501617086E+03   0.6988196998E+01   0.6988196998E+01  -0.1305905860E+01   0.1305905861E+01  -0.1396803347E-13   0.1693241951E-01   0.1484667393E-01   0.1978636405E-01
   0.1020351284E+01   0.9955472520E+00   0.9955472520E+00   0.4221722518E-06  -0.1276007964E-06  -0.1276007964E-06   0.2035086143E-01  -0.4452620403E-02  -0.4452620403E-02   0.3501617086E+03   0.6988196998E+01   0.6988196998E+01   0.1305905861E+01   0.1305905861E+01   0.2579854064E-12   0.1693241951E-01   0.1484667393E-01   0.1978636405E-01
   0.0000000000E+00   0.9952357975E+00   0.9952357975E+00   0.0000000000E+00  -0.2195265128E-06  -0.2195265128E-06   0.0000000000E+00  -0.4763982996E-02  -0.4763982996E-02   0.3405644586E+03  -0.2799530681E+01  -0.2799530681E+01   0.1345100400E+01   0.1345100400E+01  -0.2471235954E-10   0.1747412716E-01   0.1532382241E-01   0.2021640725E-01
   0.2040000000E+01   0.4281451364E-02   0.4281451364E-02   0.1000000000E-05   0.2917813452E-07   0.2917813452E-07   0.3999900000E-01   0.4281422186E-02   0.4281422186E-02   0.3597322069E+03   0.1683153683E+02   0.1683153683E+02  -0.1265724816E+01  -0.1265724816E+01   0.3227024619E-11   0.1646727222E-01   0.1443445652E-01   0.1941923300E-01
   0.2040000000E+01   0.9957185486E+00   0.4281451364E-02   0.1000000000E-05  -0.2917813451E-07   0.2917813452E-07   0.3999900000E-01  -0.4281422186E-02   0.4281422186E-02   0.3597322069E+03   0.1683153683E+02   0.1683153683E+02   0.1265724816E+01  -0.1265724816E+01  -0.5490792974E-13   0.1646727222E-01   0.1443445652E-01   0.1941923300E-01
   0.2040000000E+01   0.4281451364E-02   0.9957185486E+00   0.1000000000E-05   0.2917813452E-07  -0.2917813451E-07   0.3999900000E-01   0.4281422186E-02  -0.4281422186E-02   0.3597322069E+03   0.1683153683E+02   0.1683153683E+02  -0.1265724816E+01   0.1265724816E+01  -0.5947487434E-14   0.1646727222E-01   0.1443445652E-01   0.1941923300E-01
   0.2040000000E+01   0.9957185486E+00   0.9957185486E+00   0.1000000000E-05  -0.2917813452E-07  -0.2917813452E-07   0.3999900000E-01  -0.4281422186E-02  -0.4281422186E-02   0.3597322069E+03   0.1683153683E+02   0.1683153683E+02   0.1265724816E+01   0.1265724816E+01  -0.3287880035E-11   0.1646727222E-01   0.1443445652E-01   0.1941923300E-01
     1     2     3     4     5     6     7     8
     2     9    10     3     6    11    12     7
 VARIABLES = X,Y,Z,DU1,DU2,DU3,U1,U2,U3,S11,S22,S33,S12,S13,S23,OMEGA,EP,E11
 ZONE, T="0.4100D+00" F=FEPOINT, I=   12 J=    2 ET=BRICK
   0.0000000000E+00   0.4892300795E-02   0.4892300795E-02   0.0000000000E+00   0.1913098537E-07   0.1913098537E-07   0.0000000000E+00   0.4892281664E-02   0.4892281664E-02   0.3358939273E+03  -0.7918294999E+01  -0.7918294999E+01  -0.8510340672E+00  -0.8510340672E+00   0.1124213015E-10   0.1809113956E-01   0.1585870169E-01   0.2073256794E-01
   0.1020887278E+01   0.4620409419E-02   0.4620409419E-02   0.6236463877E-06   0.1614695236E-06   0.1614695236E-06   0.2088665431E-01   0.4620247950E-02   0.4620247950E-02   0.3381779989E+03  -0.5372653218E+01  -0.5372653218E+01  -0.8458572852E+00  -0.8458572852E+00  -0.2383318963E-10   0.1755428170E-01   0.1539320018E-01   0.2027731423E-01
   0.1020887278E+01   0.9953795906E+00   0.4620409419E-02   0.6236463877E-06  -0.1614695236E-06   0.1614695236E-06   0.2088665431E-01  -0.4620247949E-02   0.4620247950E-02   0.3381779989E+03  -0.5372653218E+01  -0.5372653218E+01   0.8458572857E+00  -0.8458572852E+00  -0.3492157425E-13   0.1755428169E-01   0.1539320018E-01   0.2027731423E-01
   0.0000000000E+00   0.9951076992E+00   0.4892300795E-02   0.0000000000E+00  -0.1913098537E-07   0.1913098538E-07   0.0000000000E+00  -0.4892281664E-02   0.4892281664E-02   0.3358939273E+03  -0.7918294999E+01  -0.7918294999E+01   0.8510340674E+00  -0.8510340672E+00  -0.4953215851E-14   0.1809113956E-01   0.1585870169E-01   0.2073256793E-01
   0.0000000000E+00   0.4892300795E-02   0.9951076992E+00   0.0000000000E+00   0.1913098538E-07  -0.1913098537E-07   0.0000000000E+00   0.4892281664E-02  -0.4892281664E-02   0.3358939273E+03  -0.7918294999E+01  -0.7918294999E+01  -0.8510340672E+00   0.8510340674E+00   0.2429173958E-13   0.1809113956E-01   0.1585870169E-01   0.2073256793E-01
   0.1020887278E+01   0.4620409419E-02   0.9953795906E+00   0.6236463877E-06   0.1614695236E-06  -0.1614695236E-06   0.2088665431E-01   0.4620247950E-02  -0.4620247949E-02   0.3381779989E+03  -0.5372653218E+01  -0.5372653218E+01  -0.8458572852E+00   0.8458572857E+00  -0.7704921036E-14   0.1755428169E-01   0.1539320018E-01   0.2027731423E-01
   0.1020887278E+01   0.9953795906E+00   0.9953795906E+00   0.6236463877E-06  -0.1614695236E-06  -0.1614695236E-06   0.2088665431E-01  -0.4620247949E-02  -0.4620247949E-02   0.3381779989E+03  -0.5372653218E+01  -0.5372653218E+01   0.8458572856E+00   0.8458572856E+00   0.2379056313E-10   0.1755428169E-01   0.1539320018E-01   0.2027731423E-01
   0.0000000000E+00   0.9951076992E+00   0.9951076992E+00   0.0000000000E+00  -0.1913098538E-07  -0.1913098538E-07   0.0000000000E+00  -0.4892281664E-02  -0.4892281664E-02   0.3358939273E+03  -0.7918294998E+01  -0.7918294998E+01   0.8510340674E+00   0.8510340674E+00  -0.1122279163E-10   0.1809113956E-01   0.1585870169E-01   0.2073256793E-01
   0.2041000000E+01   0.4480720382E-02   0.4480720382E-02   0.1000000000E-05   0.2948826499E-06   0.2948826499E-06   0.4099900000E-01   0.4480425500E-02   0.4480425500E-02   0.3405066816E+03  -0.2808099469E+01  -0.2808099469E+01  -0.8411409188E+00  -0.8411409188E+00  -0.3352532844E-10   0.1708800411E-01   0.1498765258E-01   0.1988141149E-01
   0.2041000000E+01   0.9955192796E+00   0.4480720382E-02   0.1000000000E-05  -0.2948826499E-06   0.2948826499E-06   0.4099900000E-01  -0.4480425499E-02   0.4480425500E-02   0.3405066816E+03  -0.2808099469E+01  -0.2808099469E+01   0.8411409190E+00  -0.8411409187E+00  -0.5929687305E-13   0.1708800411E-01   0.1498765258E-01   0.1988141149E-01
   0.2041000000E+01   0.4480720382E-02   0.9955192796E+00   0.1000000000E-05   0.2948826499E-06  -0.2948826499E-06   0.4099900000E-01   0.4480425500E-02  -0.4480425499E-02   0.3405066816E+03  -0.2808099469E+01  -0.2808099469E+01  -0.8411409187E+00   0.8411409190E+00   0.3470232456E-14   0.1708800411E-01   0.1498765258E-01   0.1988141149E-01
   0.2041000000E+01   0.9955192796E+00   0.9955192796E+00   0.1000000000E-05  -0.2948826499E-06  -0.2948826499E-06   0.4099900000E-01  -0.4480425499E-02  -0.4480425499E-02   0.3405066816E+03  -0.2808099469E+01  -0.2808099469E+01   0.8411409190E+00   0.8411409190E+00   0.3346950180E-10   0.1708800411E-01   0.1498765258E-01   0.1988141149E-01
     1     2     3     4     5     6     7     8
     2     9    10     3     6    11    12     7
 VARIABLES = X,Y,Z,DU1,DU2,DU3,U1,U2,U3,S11,S22,S33,S12,S13,S23,OMEGA,EP,E11
 ZONE, T="0.4200D+00" F=FEPOINT, I=   12 J=    2 ET=BRICK
   0.0000000000E+00   0.4904805144E-02   0.4904805144E-02   0.0000000000E+00   0.8982160981E-07   0.8982160981E-07   0.0000000000E+00   0.4904715323E-02   0.4904715323E-02   0.3583517645E+03   0.1422865426E+02   0.1422865426E+02  -0.5486035768E-01  -0.5486035768E-01   0.5745229454E-10   0.1856846951E-01   0.1627950483E-01   0.2126727560E-01
   0.1021453510E+01   0.4721662256E-02   0.4721662256E-02   0.4520859909E-06   0.6375644957E-07   0.6375644957E-07   0.2145305758E-01   0.4721598500E-02   0.4721598500E-02   0.3445052745E+03   0.6749916886E+00   0.6749916886E+00  -0.8378792027E-01  -0.8378792027E-01   0.8875196817E-11   0.1807902127E-01   0.1585021787E-01   0.2076812741E-01
   0.1021453510E+01   0.9952783377E+00   0.4721662256E-02   0.4520859909E-06  -0.6375644957E-07   0.6375644957E-07   0.2145305758E-01  -0.4721598500E-02   0.4721598500E-02   0.3445052745E+03   0.6749916886E+00   0.6749916886E+00   0.8378792038E-01  -0.8378792028E-01  -0.1823426858E-13   0.1807902127E-01   0.1585021787E-01   0.2076812741E-01
   0.0000000000E+00   0.9950951949E+00   0.4904805144E-02   0.0000000000E+00  -0.8982160980E-07   0.8982160980E-07   0.0000000000E+00  -0.4904715322E-02   0.4904715323E-02   0.3583517645E+03   0.1422865426E+02   0.1422865426E+02   0.5486035773E-01  -0.5486035769E-01  -0.1083954740E-13   0.1856846951E-01   0.1627950483E-01   0.2126727560E-01
   0.0000000000E+00   0.4904805144E-02   0.9950951949E+00   0.0000000000E+00   0.8982160980E-07  -0.8982160980E-07   0.0000000000E+00   0.4904715323E-02  -0.4904715322E-02   0.3583517645E+03   0.1422865426E+02   0.1422865426E+02  -0.5486035769E-01   0.5486035773E-01   0.2821775210E-13   0.1856846951E-01   0.1627950483E-01   0.2126727560E-01
   0.1021453510E+01   0.4721662256E-02   0.9952783377E+00   0.4520859909E-06   0.6375644957E-07  -0.6375644957E-07   0.2145305758E-01   0.4721598500E-02  -0.4721598500E-02   0.3445052745E+03   0.6749916886E+00   0.6749916886E+00  -0.8378792028E-01   0.8378792038E-01   0.1576320908E-13   0.1807902127E-01   0.1585021787E-01   0.2076812741E-01
   0.1021453510E+01   0.9952783377E+00   0.9952783377E+00   0.4520859909E-06  -0.6375644957E-07  -0.6375644957E-07   0.2145305758E-01  -0.4721598500E-02  -0.4721598500E-02   0.3445052745E+03   0.6749916886E+00   0.6749916886E+00   0.8378792039E-01   0.8378792039E-01  -0.8877667875E-11   0.1807902127E-01   0.1585021787E-01   0.2076812741E-01
   0.0000000000E+00   0.9950951949E+00   0.9950951949E+00   0.0000000000E+00  -0.8982160980E-07  -0.8982160980E-07   0.0000000000E+00  -0.4904715322E-02  -0.4904715322E-02   0.3583517645E+03   0.1422865426E+02   0.1422865426E+02   0.5486035774E-01   0.5486035774E-01  -0.5743491633E-10   0.1856846951E-01   0.1627950483E-01   0.2126727560E-01
   0.2042000000E+01   0.4661746719E-02   0.4661746719E-02   0.1000000000E-05   0.2913376614E-07   0.2913376614E-07   0.4199900000E-01   0.4661717585E-02   0.4661717585E-02   0.3307300985E+03  -0.1287711267E+02  -0.1287711267E+02  -0.1133004097E+00  -0.1133004097E+00  -0.2396511982E-10   0.1765556249E-01   0.1547623264E-01   0.2032428970E-01
   0.2042000000E+01   0.9953382533E+00   0.4661746719E-02   0.1000000000E-05  -0.2913376614E-07   0.2913376614E-07   0.4199900000E-01  -0.4661717585E-02   0.4661717585E-02   0.3307300985E+03  -0.1287711267E+02  -0.1287711267E+02   0.1133004098E+00  -0.1133004097E+00  -0.2442513887E-13   0.1765556249E-01   0.1547623264E-01   0.2032428970E-01
   0.2042000000E+01   0.4661746719E-02   0.9953382533E+00   0.1000000000E-05   0.2913376614E-07  -0.2913376614E-07   0.4199900000E-01   0.4661717585E-02  -0.4661717585E-02   0.3307300985E+03  -0.1287711267E+02  -0.1287711267E+02  -0.1133004097E+00   0.1133004098E+00   0.3255428425E-13   0.1765556249E-01   0.1547623264E-01   0.2032428970E-01
   0.2042000000E+01   0.9953382533E+00   0.9953382533E+00   0.1000000000E-05  -0.2913376615E-07  -0.2913376615E-07   0.4199900000E-01  -0.4661717585E-02  -0.4661717585E-02   0.3307300985E+03  -0.1287711267E+02  -0.1287711267E+02   0.1133004098E+00   0.1133004098E+00   0.2397324896E-10   0.1765556249E-01   0.1547623264E-01   0.2032428970E-01
     1     2     3     4     5     6     7     8
     2     9    10     3     6    11    12     7
 VARIABLES = X,Y,Z,DU1,DU2,DU3,U1,U2,U3,S11,S22,S33,S12,S13,S23,OMEGA,EP,E11
 ZONE, T="0.4300D+00" F=FEPOINT, I=   12 J=    2 ET=BRICK
   0.0000000000E+00   0.5114040527E-02   0.5114040527E-02   0.0000000000E+00   0.2572717730E-06   0.2572717730E-06   0.0000000000E+00   0.5113783255E-02   0.5113783255E-02   0.3396167479E+03  -0.4540362698E+01  -0.4540362698E+01  -0.8609524263E+00  -0.8609524263E+00  -0.1348908546E-10   0.1911426697E-01   0.1676378335E-01   0.2165918534E-01
   0.1021830981E+01   0.4831292110E-02   0.4831292110E-02   0.3826025205E-06   0.1688626802E-06   0.1688626802E-06   0.2183059826E-01   0.4831123248E-02   0.4831123248E-02   0.3484106006E+03   0.4335434460E+01   0.4335434460E+01  -0.9175917698E+00  -0.9175917698E+00   0.2467299154E-10   0.1860966644E-01   0.1631914764E-01   0.2125858248E-01
   0.1021830981E+01   0.9951687079E+00   0.4831292110E-02   0.3826025205E-06  -0.1688626801E-06   0.1688626801E-06   0.2183059826E-01  -0.4831123248E-02   0.4831123248E-02   0.3484106006E+03   0.4335434459E+01   0.4335434459E+01   0.9175917695E+00  -0.9175917697E+00   0.6576927605E-14   0.1860966644E-01   0.1631914764E-01   0.2125858247E-01
   0.0000000000E+00   0.9948859595E+00   0.5114040527E-02   0.0000000000E+00  -0.2572717730E-06   0.2572717730E-06   0.0000000000E+00  -0.5113783255E-02   0.5113783255E-02   0.3396167479E+03  -0.4540362698E+01  -0.4540362698E+01   0.8609524260E+00  -0.8609524262E+00  -0.9366144147E-14   0.1911426697E-01   0.1676378334E-01   0.2165918534E-01
   0.0000000000E+00   0.5114040527E-02   0.9948859595E+00   0.0000000000E+00   0.2572717730E-06  -0.2572717730E-06   0.0000000000E+00   0.5113783255E-02  -0.5113783255E-02   0.3396167479E+03  -0.4540362698E+01  -0.4540362698E+01  -0.8609524262E+00   0.8609524260E+00   0.7869228340E-14   0.1911426697E-01   0.1676378334E-01   0.2165918534E-01
   0.1021830981E+01   0.4831292110E-02   0.9951687079E+00   0.3826025205E-06   0.1688626801E-06  -0.1688626801E-06   0.2183059826E-01   0.4831123248E-02  -0.4831123248E-02   0.3484106006E+03   0.4335434459E+01   0.4335434459E+01  -0.9175917697E+00   0.9175917695E+00   0.2775306181E-13   0.1860966644E-01   0.1631914764E-01   0.2125858247E-01
   0.1021830981E+01   0.9951687079E+00   0.9951687079E+00   0.3826025205E-06  -0.1688626801E-06  -0.1688626801E-06   0.2183059826E-01  -0.4831123248E-02  -0.4831123248E-02   0.3484106006E+03   0.4335434459E+01   0.4335434459E+01   0.9175917694E+00   0.9175917694E+00  -0.2463866155E-10   0.1860966644E-01   0.1631914764E-01   0.2125858247E-01
   0.0000000000E+00   0.9948859595E+00   0.9948859595E+00   0.0000000000E+00  -0.2572717730E-06  -0.2572717730E-06   0.0000000000E+00  -0.5113783255E-02  -0.5113783255E-02   0.3396167479E+03  -0.4540362698E+01  -0.4540362698E+01   0.8609524260E+00   0.8609524260E+00   0.1348758855E-10   0.1911426697E-01   0.1676378334E-01   0.2165918534E-01
   0.2043000000E+01   0.4664504100E-02   0.4664504100E-02   0.1000000000E-05   0.7484098409E-07   0.7484098409E-07   0.4299900000E-01   0.4664429259E-02   0.4664429259E-02   0.3572047694E+03   0.1324755993E+02   0.1324755993E+02  -0.9757626084E+00  -0.9757626084E+00   0.6415408619E-10   0.1816853854E-01   0.1592789385E-01   0.2091007172E-01
   0.2043000000E+01   0.9953354959E+00   0.4664504100E-02   0.1000000000E-05  -0.7484098409E-07   0.7484098410E-07   0.4299900000E-01  -0.4664429259E-02   0.4664429259E-02   0.3572047694E+03   0.1324755993E+02   0.1324755993E+02   0.9757626082E+00  -0.9757626084E+00   0.1753231864E-13   0.1816853854E-01   0.1592789385E-01   0.2091007172E-01
   0.2043000000E+01   0.4664504100E-02   0.9953354959E+00   0.1000000000E-05   0.7484098410E-07  -0.7484098409E-07   0.4299900000E-01   0.4664429259E-02  -0.4664429259E-02   0.3572047694E+03   0.1324755993E+02   0.1324755993E+02  -0.9757626084E+00   0.9757626082E+00   0.5430969861E-13   0.1816853854E-01   0.1592789385E-01   0.2091007172E-01
   0.2043000000E+01   0.9953354959E+00   0.9953354959E+00   0.1000000000E-05  -0.7484098410E-07  -0.7484098410E-07   0.4299900000E-01  -0.4664429259E-02  -0.4664429259E-02   0.3572047694E+03   0.1324755993E+02   0.1324755993E+02   0.9757626081E+00   0.9757626081E+00  -0.6408224416E-10   0.1816853854E-01   0.1592789385E-01   0.2091007172E-01
     1     2     3     4     5     6     7     8
     2     9    10     3     6    11    12     7
 VARIABLES = X,Y,Z,DU1,DU2,DU3,U1,U2,U3,S11,S22,S33,S12,S13,S23,OMEGA,EP,E11
 ZONE, T="0.4400D+00" F=FEPOINT, I=   12 J=    2 ET=BRICK
   0.0000000000E+00   0.5238414046E-02   0.5238414046E-02   0.0000000000E+00  -0.3143793871E-07  -0.3143793871E-07   0.0000000000E+00   0.5238445484E-02   0.5238445484E-02   0.3333505991E+03  -0.1109819413E+02  -0.1109819413E+02  -0.4410595688E+00  -0.4410595688E+00  -0.4747415245E-10   0.1970134923E-01   0.1726905751E-01   0.2213642305E-01
   0.1022327608E+01   0.4993617896E-02   0.4993617896E-02   0.5935439928E-06   0.1137954874E-06   0.1137954874E-06   0.2232701413E-01   0.4993504100E-02   0.4993504100E-02   0.3373266643E+03  -0.6880543302E+01  -0.6880543302E+01  -0.4986487448E+00  -0.4986487448E+00  -0.8358739406E-11   0.1923086739E-01   0.1686231400E-01   0.2174833298E-01
   0.1022327608E+01   0.9950063821E+00   0.4993617896E-02   0.5935439928E-06  -0.1137954874E-06   0.1137954874E-06   0.2232701413E-01  -0.4993504100E-02   0.4993504100E-02   0.3373266643E+03  -0.6880543301E+01  -0.6880543301E+01   0.4986487445E+00  -0.4986487448E+00   0.1037429660E-14   0.1923086739E-01   0.1686231400E-01   0.2174833298E-01
   0.0000000000E+00   0.9947615860E+00   0.5238414046E-02   0.0000000000E+00   0.3143793871E-07  -0.3143793871E-07   0.0000000000E+00  -0.5238445483E-02   0.5238445484E-02   0.3333505991E+03  -0.1109819413E+02  -0.1109819413E+02   0.4410595685E+00  -0.4410595687E+00  -0.1496710699E-13   0.1970134923E-01   0.1726905751E-01   0.2213642304E-01
   0.0000000000E+00   0.5238414046E-02   0.9947615860E+00   0.0000000000E+00  -0.3143793871E-07   0.3143793871E-07   0.0000000000E+00   0.5238445484E-02  -0.5238445483E-02   0.3333505991E+03  -0.1109819413E+02  -0.1109819413E+02  -0.4410595687E+00   0.4410595685E+00  -0.3497967194E-13   0.1970134923E-01   0.1726905751E-01   0.2213642304E-01
   0.1022327608E+01   0.4993617896E-02   0.9950063821E+00   0.5935439928E-06   0.1137954874E-06  -0.1137954874E-06   0.2232701413E-01   0.4993504100E-02  -0.4993504100E-02   0.3373266643E+03  -0.6880543301E+01  -0.6880543301E+01  -0.4986487448E+00   0.4986487445E+00   0.4072703950E-14   0.1923086739E-01   0.1686231400E-01   0.2174833298E-01
   0.1022327608E+01   0.9950063821E+00   0.9950063821E+00   0.5935439928E-06  -0.1137954874E-06  -0.1137954874E-06   0.2232701413E-01  -0.4993504100E-02  -0.4993504100E-02   0.3373266643E+03  -0.6880543301E+01  -0.6880543301E+01   0.4986487444E+00   0.4986487444E+00   0.8363849539E-11   0.1923086739E-01   0.1686231400E-01   0.2174833298E-01
   0.0000000000E+00   0.9947615860E+00   0.9947615860E+00   0.0000000000E+00   0.3143793870E-07   0.3143793870E-07   0.0000000000E+00  -0.5238445483E-02  -0.5238445483E-02   0.3333505991E+03  -0.1109819413E+02  -0.1109819413E+02   0.4410595685E+00   0.4410595685E+00   0.4742420566E-10   0.1970134923E-01   0.1726905751E-01   0.2213642304E-01
   0.2044000000E+01   0.4861250361E-02   0.4861250361E-02   0.1000000000E-05   0.2576014700E-06   0.2576014700E-06   0.4399900000E-01   0.4860992760E-02   0.4860992760E-02   0.3414301608E+03  -0.2689780750E+01  -0.2689780750E+01  -0.5576656894E+00  -0.5576656894E+00   0.1763753576E-10   0.1881878577E-01   0.1650493678E-01   0.2141075108E-01
   0.2044000000E+01   0.9951387496E+00   0.4861250361E-02   0.1000000000E-05  -0.2576014700E-06   0.2576014700E-06   0.4399900000E-01  -0.4860992760E-02   0.4860992760E-02   0.3414301608E+03  -0.2689780750E+01  -0.2689780750E+01   0.5576656891E+00  -0.5576656893E+00   0.1838340517E-13   0.1881878577E-01   0.1650493678E-01   0.2141075108E-01
   0.2044000000E+01   0.4861250361E-02   0.9951387496E+00   0.1000000000E-05   0.2576014700E-06  -0.2576014700E-06   0.4399900000E-01   0.4860992760E-02  -0.4860992760E-02   0.3414301608E+03  -0.2689780750E+01  -0.2689780750E+01  -0.5576656893E+00   0.5576656891E+00   0.3306492256E-13   0.1881878577E-01   0.1650493678E-01   0.2141075108E-01
   0.2044000000E+01   0.9951387496E+00   0.9951387496E+00   0.1000000000E-05  -0.2576014700E-06  -0.2576014700E-06   0.4399900000E-01  -0.4860992760E-02  -0.4860992760E-02   0.3414301608E+03  -0.2689780750E+01  -0.2689780750E+01   0.5576656891E+00   0.5576656891E+00  -0.1758608744E-10   0.1881878577E-01   0.1650493678E-01   0.2141075108E-01
     1     2     3     4     5     6     7     8
     2     9    10     3     6    11    12     7
 VARIABLES = X,Y,Z,DU1,DU2,DU3,U1,U2,U3,S11,S22,S33,S12,S13,S23,OMEGA,EP,E11
 ZONE, T="0.4500D+00" F=FEPOINT, I=   12 J=    2 ET=BRICK
   0.0000000000E+00   0.5211668822E-02   0.5211668822E-02   0.0000000000E+00   0.9166175271E-07   0.9166175271E-07   0.0000000000E+00   0.5211577160E-02   0.5211577160E-02   0.3637557262E+03   0.1897545917E+02   0.1897545917E+02   0.4291813351E+00   0.4291813351E+00   0.2260879331E-10   0.2011184234E-01   0.1763211687E-01   0.2265280749E-01
   0.1022879077E+01   0.5069302135E-02   0.5069302135E-02   0.4471572713E-06   0.8416297286E-07   0.8416297286E-07   0.2287863020E-01   0.5069217972E-02   0.5069217972E-02   0.3500917813E+03   0.5503096695E+01   0.5503096695E+01   0.3786058063E+00   0.3786058063E+00   0.1993966357E-10   0.1971376621E-01   0.1728484992E-01   0.2223736982E-01
   0.1022879077E+01   0.9949306979E+00   0.5069302135E-02   0.4471572713E-06  -0.8416297286E-07   0.8416297286E-07   0.2287863020E-01  -0.5069217972E-02   0.5069217972E-02   0.3500917813E+03   0.5503096695E+01   0.5503096695E+01  -0.3786058064E+00   0.3786058063E+00  -0.2249064463E-13   0.1971376621E-01   0.1728484992E-01   0.2223736982E-01
   0.0000000000E+00   0.9947883312E+00   0.5211668822E-02   0.0000000000E+00  -0.9166175271E-07   0.9166175271E-07   0.0000000000E+00  -0.5211577160E-02   0.5211577160E-02   0.3637557262E+03   0.1897545917E+02   0.1897545917E+02  -0.4291813351E+00   0.4291813351E+00  -0.7469652707E-14   0.2011184234E-01   0.1763211687E-01   0.2265280749E-01
   0.0000000000E+00   0.5211668822E-02   0.9947883312E+00   0.0000000000E+00   0.9166175271E-07  -0.9166175271E-07   0.0000000000E+00   0.5211577160E-02  -0.5211577160E-02   0.3637557262E+03   0.1897545917E+02   0.1897545917E+02   0.4291813351E+00  -0.4291813351E+00  -0.5002344976E-13   0.2011184234E-01   0.1763211687E-01   0.2265280749E-01
   0.1022879077E+01   0.5069302135E-02   0.9949306979E+00   0.4471572713E-06   0.8416297286E-07  -0.8416297286E-07   0.2287863020E-01   0.5069217972E-02  -0.5069217972E-02   0.3500917813E+03   0.5503096695E+01   0.5503096695E+01   0.3786058063E+00  -0.3786058064E+00  -0.2568376096E-13   0.1971376621E-01   0.1728484992E-01   0.2223736982E-01
   0.1022879077E+01   0.9949306979E+00   0.9949306979E+00   0.4471572713E-06  -0.8416297286E-07  -0.8416297286E-07   0.2287863020E-01  -0.5069217972E-02  -0.5069217972E-02   0.3500917813E+03   0.5503096695E+01   0.5503096695E+01  -0.3786058064E+00  -0.3786058064E+00  -0.1998783798E-10   0.1971376621E-01   0.1728484992E-01   0.2223736981E-01
   0.0000000000E+00   0.9947883312E+00   0.9947883312E+00   0.0000000000E+00  -0.9166175271E-07  -0.9166175271E-07   0.0000000000E+00  -0.5211577160E-02  -0.5211577160E-02   0.3637557262E+03   0.1897545917E+02   0.1897545917E+02  -0.4291813351E+00  -0.4291813351E+00  -0.2266628641E-10   0.2011184234E-01   0.1763211687E-01   0.2265280749E-01
   0.2045000000E+01   0.5039913449E-02   0.5039913449E-02   0.1000000000E-05   0.7908004588E-07   0.7908004588E-07   0.4499900000E-01   0.5039834369E-02   0.5039834369E-02   0.3364676218E+03  -0.7954358891E+01  -0.7954358891E+01   0.3280976962E+00   0.3280976962E+00  -0.5196422176E-11   0.1937699137E-01   0.1698881812E-01   0.2187266737E-01
   0.2045000000E+01   0.9949600866E+00   0.5039913449E-02   0.1000000000E-05  -0.7908004587E-07   0.7908004588E-07   0.4499900000E-01  -0.5039834368E-02   0.5039834369E-02   0.3364676218E+03  -0.7954358891E+01  -0.7954358891E+01  -0.3280976962E+00   0.3280976962E+00  -0.1261620262E-13   0.1937699137E-01   0.1698881812E-01   0.2187266737E-01
   0.2045000000E+01   0.5039913449E-02   0.9949600866E+00   0.1000000000E-05   0.7908004588E-07  -0.7908004587E-07   0.4499900000E-01   0.5039834369E-02  -0.5039834368E-02   0.3364676218E+03  -0.7954358891E+01  -0.7954358891E+01   0.3280976962E+00  -0.3280976962E+00  -0.1126484419E-13   0.1937699137E-01   0.1698881812E-01   0.2187266737E-01
   0.2045000000E+01   0.9949600866E+00   0.9949600866E+00   0.1000000000E-05  -0.7908004588E-07  -0.7908004588E-07   0.4499900000E-01  -0.5039834368E-02  -0.5039834368E-02   0.3364676218E+03  -0.7954358891E+01  -0.7954358891E+01  -0.3280976962E+00  -0.3280976962E+00   0.5172541129E-11   0.1937699137E-01   0.1698881812E-01   0.2187266737E-01
     1     2     3     4     5     6     7     8
     2     9    10     3     6    11    12     7
 VARIABLES = X,Y,Z,DU1,DU2,DU3,U1,U2,U3,S11,S22,S33,S12,S13,S23,OMEGA,EP,E11
 ZONE, T="0.4600D+00" F=FEPOINT, I=   12 J=    2 ET=BRICK
   0.0000000000E+00   0.5447835895E-02   0.5447835895E-02   0.0000000000E+00   0.2747087153E-06   0.2747087153E-06   0.0000000000E+00   0.5447561186E-02   0.5447561186E-02   0.3359380882E+03  -0.9063948303E+01  -0.9063948303E+01  -0.3739511350E+00  -0.3739511350E+00  -0.4944832008E-10   0.2069172195E-01   0.1814656119E-01   0.2303189560E-01
   0.1023245502E+01   0.5212689389E-02   0.5212689389E-02   0.3618416652E-06   0.1780125439E-06   0.1780125439E-06   0.2324514012E-01   0.5212511377E-02   0.5212511377E-02   0.3437480347E+03  -0.1008749086E+01  -0.1008749086E+01  -0.4028066029E+00  -0.4028066029E+00  -0.7371886387E-11   0.2030087586E-01   0.1780301344E-01   0.2272584211E-01
   0.1023245502E+01   0.9947873106E+00   0.5212689389E-02   0.3618416652E-06  -0.1780125439E-06   0.1780125439E-06   0.2324514012E-01  -0.5212511377E-02   0.5212511377E-02   0.3437480347E+03  -0.1008749086E+01  -0.1008749086E+01   0.4028066031E+00  -0.4028066028E+00  -0.1436032284E-13   0.2030087586E-01   0.1780301344E-01   0.2272584211E-01
   0.0000000000E+00   0.9945521641E+00   0.5447835895E-02   0.0000000000E+00  -0.2747087153E-06   0.2747087153E-06   0.0000000000E+00  -0.5447561186E-02   0.5447561186E-02   0.3359380882E+03  -0.9063948303E+01  -0.9063948303E+01   0.3739511352E+00  -0.3739511350E+00   0.2371305765E-13   0.2069172195E-01   0.1814656119E-01   0.2303189560E-01
   0.0000000000E+00   0.5447835895E-02   0.9945521641E+00   0.0000000000E+00   0.2747087153E-06  -0.2747087153E-06   0.0000000000E+00   0.5447561186E-02  -0.5447561186E-02   0.3359380882E+03  -0.9063948303E+01  -0.9063948303E+01  -0.3739511350E+00   0.3739511352E+00  -0.5538940810E-14   0.2069172195E-01   0.1814656119E-01   0.2303189560E-01
   0.1023245502E+01   0.5212689389E-02   0.9947873106E+00   0.3618416652E-06   0.1780125439E-06  -0.1780125439E-06   0.2324514012E-01   0.5212511377E-02  -0.5212511377E-02   0.3437480347E+03  -0.1008749086E+01  -0.1008749086E+01  -0.4028066028E+00   0.4028066031E+00  -0.5456950038E-14   0.2030087586E-01   0.1780301344E-01   0.2272584211E-01
   0.1023245502E+01   0.9947873106E+00   0.9947873106E+00   0.3618416652E-06  -0.1780125439E-06  -0.1780125439E-06   0.2324514012E-01  -0.5212511377E-02  -0.5212511377E-02   0.3437480347E+03  -0.1008749086E+01  -0.1008749086E+01   0.4028066031E+00   0.4028066031E+00   0.7352069114E-11   0.2030087586E-01   0.1780301344E-01   0.2272584211E-01
   0.0000000000E+00   0.9945521641E+00   0.9945521641E+00   0.0000000000E+00  -0.2747087153E-06  -0.2747087153E-06   0.0000000000E+00  -0.5447561186E-02  -0.5447561186E-02   0.3359380881E+03  -0.9063948303E+01  -0.9063948303E+01   0.3739511352E+00   0.3739511352E+00   0.4946649419E-10   0.2069172195E-01   0.1814656119E-01   0.2303189560E-01
   0.2046000000E+01   0.5094462146E-02   0.5094462146E-02   0.1000000000E-05   0.8651724233E-07   0.8651724233E-07   0.4599900000E-01   0.5094375629E-02   0.5094375629E-02   0.3515978144E+03   0.7063238348E+01   0.7063238348E+01  -0.4322159106E+00  -0.4322159106E+00   0.1105118591E-10   0.1997309414E-01   0.1751255383E-01   0.2247232925E-01
   0.2046000000E+01   0.9949055379E+00   0.5094462146E-02   0.1000000000E-05  -0.8651724233E-07   0.8651724234E-07   0.4599900000E-01  -0.5094375628E-02   0.5094375629E-02   0.3515978144E+03   0.7063238348E+01   0.7063238348E+01   0.4322159108E+00  -0.4322159106E+00  -0.1189386211E-13   0.1997309414E-01   0.1751255383E-01   0.2247232925E-01
   0.2046000000E+01   0.5094462146E-02   0.9949055379E+00   0.1000000000E-05   0.8651724234E-07  -0.8651724233E-07   0.4599900000E-01   0.5094375629E-02  -0.5094375628E-02   0.3515978144E+03   0.7063238348E+01   0.7063238348E+01  -0.4322159106E+00   0.4322159108E+00  -0.1234163463E-13   0.1997309414E-01   0.1751255383E-01   0.2247232925E-01
   0.2046000000E+01   0.9949055379E+00   0.9949055379E+00   0.1000000000E-05  -0.8651724233E-07  -0.8651724233E-07   0.4599900000E-01  -0.5094375628E-02  -0.5094375628E-02   0.3515978144E+03   0.7063238348E+01   0.7063238348E+01   0.4322159107E+00   0.4322159107E+00  -0.1107542140E-10   0.1997309414E-01   0.1751255383E-01   0.2247232925E-01
     1     2     3     4     5     6     7     8
     2     9    10     3     6    11    12     7
 VARIABLES = X,Y,Z,DU1,DU2,DU3,U1,U2,U3,S11,S22,S33,S12,S13,S23,OMEGA,EP,E11
 ZONE, T="0.4700D+00" F=FEPOINT, I=   12 J=    2 ET=BRICK
   0.0000000000E+00   0.5552510507E-02   0.5552510507E-02   0.0000000000E+00  -0.6715303270E-07  -0.6715303270E-07   0.0000000000E+00   0.5552577660E-02   0.5552577660E-02   0.3353707412E+03  -0.9922806540E+01  -0.9922806540E+01  -0.1138844549E+00  -0.1138844549E+00  -0.3088716415E-10   0.2122727275E-01   0.1860521639E-01   0.2349056822E-01
   0.1023720926E+01   0.5342699010E-02   0.5342699010E-02   0.5807912906E-06   0.7093233619E-07   0.7093233619E-07   0.2372034507E-01   0.5342628078E-02   0.5342628078E-02   0.3409824888E+03  -0.4073467982E+01  -0.4073467982E+01  -0.1125164107E+00  -0.1125164107E+00  -0.1617271347E-10   0.2087333200E-01   0.1830182129E-01   0.2321383100E-01
   0.1023720926E+01   0.9946573010E+00   0.5342699010E-02   0.5807912906E-06  -0.7093233619E-07   0.7093233619E-07   0.2372034507E-01  -0.5342628077E-02   0.5342628078E-02   0.3409824888E+03  -0.4073467982E+01  -0.4073467982E+01   0.1125164110E+00  -0.1125164107E+00   0.3685215565E-14   0.2087333200E-01   0.1830182129E-01   0.2321383100E-01
   0.0000000000E+00   0.9944474895E+00   0.5552510507E-02   0.0000000000E+00   0.6715303269E-07  -0.6715303269E-07   0.0000000000E+00  -0.5552577660E-02   0.5552577660E-02   0.3353707412E+03  -0.9922806540E+01  -0.9922806539E+01   0.1138844551E+00  -0.1138844549E+00   0.3501644479E-13   0.2122727275E-01   0.1860521639E-01   0.2349056822E-01
   0.0000000000E+00   0.5552510507E-02   0.9944474895E+00   0.0000000000E+00  -0.6715303269E-07   0.6715303269E-07   0.0000000000E+00   0.5552577660E-02  -0.5552577660E-02   0.3353707412E+03  -0.9922806539E+01  -0.9922806540E+01  -0.1138844549E+00   0.1138844551E+00   0.4535794809E-13   0.2122727275E-01   0.1860521639E-01   0.2349056822E-01
   0.1023720926E+01   0.5342699010E-02   0.9946573010E+00   0.5807912906E-06   0.7093233619E-07  -0.7093233619E-07   0.2372034507E-01   0.5342628078E-02  -0.5342628077E-02   0.3409824888E+03  -0.4073467982E+01  -0.4073467982E+01  -0.1125164107E+00   0.1125164110E+00   0.3589906569E-13   0.2087333200E-01   0.1830182129E-01   0.2321383100E-01
   0.1023720926E+01   0.9946573010E+00   0.9946573010E+00   0.5807912906E-06  -0.7093233619E-07  -0.7093233619E-07   0.2372034507E-01  -0.5342628077E-02  -0.5342628077E-02   0.3409824888E+03  -0.4073467981E+01  -0.4073467981E+01   0.1125164109E+00   0.1125164109E+00   0.1621229775E-10   0.2087333200E-01   0.1830182129E-01   0.2321383100E-01
   0.0000000000E+00   0.9944474895E+00   0.9944474895E+00   0.0000000000E+00   0.6715303268E-07   0.6715303268E-07   0.0000000000E+00  -0.5552577660E-02  -0.5552577660E-02   0.3353707412E+03  -0.9922806539E+01  -0.9922806539E+01   0.1138844551E+00   0.1138844551E+00   0.3096753854E-10   0.2122727275E-01   0.1860521639E-01   0.2349056822E-01
   0.2047000000E+01   0.5255618166E-02   0.5255618166E-02   0.1000000000E-05   0.2150145315E-06   0.2150145315E-06   0.4699900000E-01   0.5255403152E-02   0.5255403152E-02   0.3467643134E+03   0.1729896509E+01   0.1729896509E+01  -0.1114326188E+00  -0.1114326188E+00  -0.1925067615E-10   0.2058228222E-01   0.1805172004E-01   0.2299225066E-01
   0.2047000000E+01   0.9947443818E+00   0.5255618166E-02   0.1000000000E-05  -0.2150145315E-06   0.2150145315E-06   0.4699900000E-01  -0.5255403152E-02   0.5255403152E-02   0.3467643134E+03   0.1729896509E+01   0.1729896509E+01   0.1114326191E+00  -0.1114326188E+00   0.9101727516E-14   0.2058228222E-01   0.1805172004E-01   0.2299225066E-01
   0.2047000000E+01   0.5255618166E-02   0.9947443818E+00   0.1000000000E-05   0.2150145315E-06  -0.2150145315E-06   0.4699900000E-01   0.5255403152E-02  -0.5255403152E-02   0.3467643134E+03   0.1729896509E+01   0.1729896509E+01  -0.1114326188E+00   0.1114326191E+00   0.1490555082E-13   0.2058228222E-01   0.1805172004E-01   0.2299225066E-01
   0.2047000000E+01   0.9947443818E+00   0.9947443818E+00   0.1000000000E-05  -0.2150145315E-06  -0.2150145315E-06   0.4699900000E-01  -0.5255403152E-02  -0.5255403152E-02   0.3467643134E+03   0.1729896509E+01   0.1729896509E+01   0.1114326191E+00   0.1114326191E+00   0.1927468343E-10   0.2058228221E-01   0.1805172004E-01   0.2299225066E-01
     1     2     3     4     5     6     7     8
     2     9    10     3     6    11    12     7
 VARIABLES = X,Y,Z,DU1,DU2,DU3,U1,U2,U3,S11,S22,S33,S12,S13,S23,OMEGA,EP,E11
 ZONE, T="0.4800D+00" F=FEPOINT, I=   12 J=    2 ET=BRICK
   0.0000000000E+00   0.5523898816E-02   0.5523898816E-02   0.0000000000E+00   0.1228882661E-06   0.1228882661E-06   0.0000000000E+00   0.5523775928E-02   0.5523775928E-02   0.3654230783E+03   0.2006163264E+02   0.2006163264E+02   0.7779380767E+00   0.7779380767E+00   0.6540199242E-10   0.2164117720E-01   0.1897311010E-01   0.2400760186E-01
   0.1024275260E+01   0.5422648490E-02   0.5422648490E-02   0.4607906400E-06   0.1296286971E-06   0.1296286971E-06   0.2427479888E-01   0.5422518861E-02   0.5422518861E-02   0.3520218744E+03   0.6829608536E+01   0.6829608536E+01   0.7958678078E+00   0.7958678078E+00   0.1676655495E-10   0.2136392441E-01   0.1873389139E-01   0.2370160327E-01
   0.1024275260E+01   0.9945773515E+00   0.5422648490E-02   0.4607906400E-06  -0.1296286971E-06   0.1296286971E-06   0.2427479888E-01  -0.5422518861E-02   0.5422518861E-02   0.3520218744E+03   0.6829608535E+01   0.6829608535E+01  -0.7958678077E+00   0.7958678077E+00  -0.1666668566E-13   0.2136392441E-01   0.1873389139E-01   0.2370160327E-01
   0.0000000000E+00   0.9944761012E+00   0.5523898816E-02   0.0000000000E+00  -0.1228882661E-06   0.1228882661E-06   0.0000000000E+00  -0.5523775928E-02   0.5523775928E-02   0.3654230783E+03   0.2006163264E+02   0.2006163264E+02  -0.7779380766E+00   0.7779380767E+00  -0.1713552089E-13   0.2164117720E-01   0.1897311010E-01   0.2400760186E-01
   0.0000000000E+00   0.5523898816E-02   0.9944761012E+00   0.0000000000E+00   0.1228882661E-06  -0.1228882661E-06   0.0000000000E+00   0.5523775928E-02  -0.5523775928E-02   0.3654230783E+03   0.2006163264E+02   0.2006163264E+02   0.7779380767E+00  -0.7779380766E+00   0.3135250096E-13   0.2164117720E-01   0.1897311010E-01   0.2400760186E-01
   0.1024275260E+01   0.5422648490E-02   0.9945773515E+00   0.4607906400E-06   0.1296286971E-06  -0.1296286971E-06   0.2427479888E-01   0.5422518861E-02  -0.5422518861E-02   0.3520218744E+03   0.6829608535E+01   0.6829608535E+01   0.7958678077E+00  -0.7958678077E+00   0.3224247152E-13   0.2136392441E-01   0.1873389139E-01   0.2370160327E-01
   0.1024275260E+01   0.9945773515E+00   0.9945773515E+00   0.4607906400E-06  -0.1296286971E-06  -0.1296286971E-06   0.2427479888E-01  -0.5422518861E-02  -0.5422518861E-02   0.3520218744E+03   0.6829608535E+01   0.6829608535E+01  -0.7958678077E+00  -0.7958678077E+00  -0.1675097916E-10   0.2136392441E-01   0.1873389139E-01   0.2370160326E-01
   0.0000000000E+00   0.9944761012E+00   0.9944761012E+00   0.0000000000E+00  -0.1228882661E-06  -0.1228882661E-06   0.0000000000E+00  -0.5523775928E-02  -0.5523775928E-02   0.3654230783E+03   0.2006163264E+02   0.2006163264E+02  -0.7779380766E+00  -0.7779380766E+00  -0.6538777543E-10   0.2164117720E-01   0.1897311010E-01   0.2400760186E-01
   0.2048000000E+01   0.5449588112E-02   0.5449588112E-02   0.1000000000E-05   0.1410458081E-06   0.1410458081E-06   0.4799900000E-01   0.5449447066E-02   0.5449447066E-02   0.3387605167E+03  -0.6433843138E+01  -0.6433843138E+01   0.8136122149E+00   0.8136122149E+00  -0.3788533567E-10   0.2115363508E-01   0.1855100911E-01   0.2345320552E-01
   0.2048000000E+01   0.9945504119E+00   0.5449588112E-02   0.1000000000E-05  -0.1410458081E-06   0.1410458081E-06   0.4799900000E-01  -0.5449447066E-02   0.5449447066E-02   0.3387605167E+03  -0.6433843138E+01  -0.6433843137E+01  -0.8136122148E+00   0.8136122148E+00   0.1532604778E-15   0.2115363508E-01   0.1855100911E-01   0.2345320551E-01
   0.2048000000E+01   0.5449588112E-02   0.9945504119E+00   0.1000000000E-05   0.1410458081E-06  -0.1410458081E-06   0.4799900000E-01   0.5449447066E-02  -0.5449447066E-02   0.3387605167E+03  -0.6433843137E+01  -0.6433843138E+01   0.8136122148E+00  -0.8136122148E+00   0.1223269594E-13   0.2115363508E-01   0.1855100911E-01   0.2345320551E-01
   0.2048000000E+01   0.9945504119E+00   0.9945504119E+00   0.1000000000E-05  -0.1410458081E-06  -0.1410458081E-06   0.4799900000E-01  -0.5449447066E-02  -0.5449447066E-02   0.3387605167E+03  -0.6433843137E+01  -0.6433843137E+01  -0.8136122147E+00  -0.8136122147E+00   0.3789772162E-10   0.2115363508E-01   0.1855100911E-01   0.2345320551E-01
     1     2     3     4     5     6     7     8
     2     9    10     3     6    11    12     7
 VARIABLES = X,Y,Z,DU1,DU2,DU3,U1,U2,U3,S11,S22,S33,S12,S13,S23,OMEGA,EP,E11
 ZONE, T="0.4900D+00" F=FEPOINT, I=   12 J=    2 ET=BRICK
   0.0000000000E+00   0.5776128414E-02   0.5776128414E-02   0.0000000000E+00   0.2578139738E-06   0.2578139738E-06   0.0000000000E+00   0.5775870600E-02   0.5775870600E-02   0.3329169536E+03  -0.1272496182E+02  -0.1272496182E+02  -0.2564625375E-01  -0.2564625375E-01  -0.1426370887E-10   0.2225557006E-01   0.1951641016E-01   0.2439299795E-01
   0.1024649850E+01   0.5587407975E-02   0.5587407975E-02   0.3599963400E-06   0.1529227555E-06   0.1529227555E-06   0.2464949038E-01   0.5587255053E-02   0.5587255053E-02   0.3398509811E+03  -0.5763444899E+01  -0.5763444899E+01   0.3561561694E-02   0.3561561694E-02  -0.1445513513E-10   0.2198308805E-01   0.1927770894E-01   0.2418938416E-01
   0.1024649850E+01   0.9944125920E+00   0.5587407975E-02   0.3599963400E-06  -0.1529227555E-06   0.1529227555E-06   0.2464949038E-01  -0.5587255052E-02   0.5587255053E-02   0.3398509811E+03  -0.5763444898E+01  -0.5763444898E+01  -0.3561561909E-02   0.3561561695E-02  -0.3223749458E-13   0.2198308805E-01   0.1927770894E-01   0.2418938416E-01
   0.0000000000E+00   0.9942238716E+00   0.5776128414E-02   0.0000000000E+00  -0.2578139738E-06   0.2578139738E-06   0.0000000000E+00  -0.5775870600E-02   0.5775870600E-02   0.3329169536E+03  -0.1272496181E+02  -0.1272496181E+02   0.2564625363E-01  -0.2564625375E-01  -0.5515800198E-13   0.2225557006E-01   0.1951641016E-01   0.2439299795E-01
   0.0000000000E+00   0.5776128414E-02   0.9942238716E+00   0.0000000000E+00   0.2578139738E-06  -0.2578139738E-06   0.0000000000E+00   0.5775870600E-02  -0.5775870600E-02   0.3329169536E+03  -0.1272496181E+02  -0.1272496181E+02  -0.2564625375E-01   0.2564625363E-01   0.1710023213E-14   0.2225557006E-01   0.1951641016E-01   0.2439299795E-01
   0.1024649850E+01   0.5587407975E-02   0.9944125920E+00   0.3599963400E-06   0.1529227555E-06  -0.1529227555E-06   0.2464949038E-01   0.5587255053E-02  -0.5587255052E-02   0.3398509811E+03  -0.5763444898E+01  -0.5763444898E+01   0.3561561695E-02  -0.3561561909E-02   0.1006824699E-13   0.2198308805E-01   0.1927770894E-01   0.2418938416E-01
   0.1024649850E+01   0.9944125920E+00   0.9944125920E+00   0.3599963400E-06  -0.1529227555E-06  -0.1529227555E-06   0.2464949038E-01  -0.5587255052E-02  -0.5587255052E-02   0.3398509811E+03  -0.5763444898E+01  -0.5763444898E+01  -0.3561561910E-02  -0.3561561910E-02   0.1443296588E-10   0.2198308805E-01   0.1927770894E-01   0.2418938416E-01
   0.0000000000E+00   0.9942238716E+00   0.9942238716E+00   0.0000000000E+00  -0.2578139738E-06  -0.2578139738E-06   0.0000000000E+00  -0.5775870600E-02  -0.5775870600E-02   0.3329169536E+03  -0.1272496181E+02  -0.1272496181E+02   0.2564625363E-01   0.2564625363E-01   0.1421026089E-10   0.2225557006E-01   0.1951641016E-01   0.2439299795E-01
   0.2049000000E+01   0.5530453164E-02   0.5530453164E-02   0.1000000000E-05   0.5040192234E-07   0.5040192234E-07   0.4899900000E-01   0.5530402762E-02   0.5530402762E-02   0.3466892736E+03   0.1286272525E+01   0.1286272525E+01   0.3260231813E-01   0.3260231813E-01  -0.8307724787E-11   0.2178428366E-01   0.1910150543E-01   0.2404501126E-01
   0.2049000000E+01   0.9944695468E+00   0.5530453164E-02   0.1000000000E-05  -0.5040192234E-07   0.5040192235E-07   0.4899900000E-01  -0.5530402762E-02   0.5530402762E-02   0.3466892736E+03   0.1286272524E+01   0.1286272525E+01  -0.3260231824E-01   0.3260231813E-01  -0.8161682051E-14   0.2178428366E-01   0.1910150543E-01   0.2404501126E-01
   0.2049000000E+01   0.5530453164E-02   0.9944695468E+00   0.1000000000E-05   0.5040192235E-07  -0.5040192234E-07   0.4899900000E-01   0.5530402762E-02  -0.5530402762E-02   0.3466892736E+03   0.1286272525E+01   0.1286272524E+01   0.3260231813E-01  -0.3260231824E-01   0.2117041126E-14   0.2178428366E-01   0.1910150543E-01   0.2404501126E-01
   0.2049000000E+01   0.9944695468E+00   0.9944695468E+00   0.1000000000E-05  -0.5040192235E-07  -0.5040192235E-07   0.4899900000E-01  -0.5530402762E-02  -0.5530402762E-02   0.3466892736E+03   0.1286272524E+01   0.1286272524E+01  -0.3260231824E-01  -0.3260231824E-01   0.8301680145E-11   0.2178428366E-01   0.1910150542E-01   0.2404501125E-01
     1     2     3     4     5     6     7     8
     2     9    10     3     6    11    12     7
 VARIABLES = X,Y,Z,DU1,DU2,DU3,U1,U2,U3,S11,S22,S33,S12,S13,S23,OMEGA,EP,E11
 ZONE, T="0.5000D+00" F=FEPOINT, I=   12 J=    2 ET=BRICK
   0.0000000000E+00   0.5858388077E-02   0.5858388077E-02   0.0000000000E+00  -0.6653765138E-07  -0.6653765138E-07   0.0000000000E+00   0.5858454615E-02   0.5858454615E-02   0.3399261393E+03  -0.5824423085E+01  -0.5824423085E+01   0.8966521532E-01   0.8966521532E-01   0.8786905388E-11   0.2274697514E-01   0.1993751227E-01   0.2484970363E-01
   0.1025120864E+01   0.5681738514E-02   0.5681738514E-02   0.5824817838E-06   0.6256814725E-07   0.6256814725E-07   0.2512028169E-01   0.5681675946E-02   0.5681675946E-02   0.3470663969E+03   0.1408183987E+01   0.1408183987E+01   0.1207686805E+00   0.1207686805E+00   0.9322613892E-11   0.2250126898E-01   0.1972954188E-01   0.2467719508E-01
   0.1025120864E+01   0.9943182615E+00   0.5681738514E-02   0.5824817838E-06  -0.6256814724E-07   0.6256814725E-07   0.2512028169E-01  -0.5681675945E-02   0.5681675946E-02   0.3470663969E+03   0.1408183986E+01   0.1408183986E+01  -0.1207686807E+00   0.1207686805E+00  -0.2241676004E-13   0.2250126898E-01   0.1972954188E-01   0.2467719508E-01
   0.0000000000E+00   0.9941416119E+00   0.5858388077E-02   0.0000000000E+00   0.6653765138E-07  -0.6653765137E-07   0.0000000000E+00  -0.5858454614E-02   0.5858454615E-02   0.3399261392E+03  -0.5824423084E+01  -0.5824423084E+01  -0.8966521544E-01   0.8966521532E-01  -0.4079791902E-13   0.2274697514E-01   0.1993751226E-01   0.2484970362E-01
   0.0000000000E+00   0.5858388077E-02   0.9941416119E+00   0.0000000000E+00  -0.6653765137E-07   0.6653765138E-07   0.0000000000E+00   0.5858454615E-02  -0.5858454614E-02   0.3399261392E+03  -0.5824423084E+01  -0.5824423084E+01   0.8966521532E-01  -0.8966521544E-01   0.2442455392E-14   0.2274697514E-01   0.1993751226E-01   0.2484970362E-01
   0.1025120864E+01   0.5681738514E-02   0.9943182615E+00   0.5824817838E-06   0.6256814725E-07  -0.6256814724E-07   0.2512028169E-01   0.5681675946E-02  -0.5681675945E-02   0.3470663969E+03   0.1408183986E+01   0.1408183986E+01   0.1207686805E+00  -0.1207686807E+00  -0.1958827412E-14   0.2250126898E-01   0.1972954188E-01   0.2467719508E-01
   0.1025120864E+01   0.9943182615E+00   0.9943182615E+00   0.5824817838E-06  -0.6256814725E-07  -0.6256814725E-07   0.2512028169E-01  -0.5681675945E-02  -0.5681675945E-02   0.3470663968E+03   0.1408183986E+01   0.1408183986E+01  -0.1207686807E+00  -0.1207686807E+00  -0.9346989478E-11   0.2250126898E-01   0.1972954188E-01   0.2467719508E-01
   0.0000000000E+00   0.9941416119E+00   0.9941416119E+00   0.0000000000E+00   0.6653765137E-07   0.6653765137E-07   0.0000000000E+00  -0.5858454614E-02  -0.5858454614E-02   0.3399261392E+03  -0.5824423084E+01  -0.5824423084E+01  -0.8966521544E-01  -0.8966521544E-01  -0.8825260851E-11   0.2274697514E-01   0.1993751226E-01   0.2484970362E-01
   0.2050000000E+01   0.5637867655E-02   0.5637867655E-02   0.1000000000E-05   0.1913146325E-06   0.1913146325E-06   0.4999900000E-01   0.5637676340E-02   0.5637676340E-02   0.3542497876E+03   0.8660366348E+01   0.8660366348E+01   0.1516979252E+00   0.1516979252E+00   0.2598545200E-10   0.2232655585E-01   0.1958191244E-01   0.2456439283E-01
   0.2050000000E+01   0.9943621323E+00   0.5637867655E-02   0.1000000000E-05  -0.1913146325E-06   0.1913146325E-06   0.4999900000E-01  -0.5637676340E-02   0.5637676340E-02   0.3542497875E+03   0.8660366348E+01   0.8660366348E+01  -0.1516979253E+00   0.1516979252E+00  -0.1019306870E-13   0.2232655585E-01   0.1958191244E-01   0.2456439283E-01
   0.2050000000E+01   0.5637867655E-02   0.9943621323E+00   0.1000000000E-05   0.1913146325E-06  -0.1913146325E-06   0.4999900000E-01   0.5637676340E-02  -0.5637676340E-02   0.3542497875E+03   0.8660366348E+01   0.8660366348E+01   0.1516979252E+00  -0.1516979253E+00  -0.8045410374E-14   0.2232655585E-01   0.1958191244E-01   0.2456439283E-01
   0.2050000000E+01   0.9943621323E+00   0.9943621323E+00   0.1000000000E-05  -0.1913146325E-06  -0.1913146325E-06   0.4999900000E-01  -0.5637676340E-02  -0.5637676340E-02   0.3542497875E+03   0.8660366348E+01   0.8660366348E+01  -0.1516979253E+00  -0.1516979253E+00  -0.2600369047E-10   0.2232655585E-01   0.1958191244E-01   0.2456439283E-01
     1     2     3     4     5     6     7     8
     2     9    10     3     6    11    12     7
 VARIABLES = X,Y,Z,DU1,DU2,DU3,U1,U2,U3,S11,S22,S33,S12,S13,S23,OMEGA,EP,E11
 ZONE, T="0.5100D+00" F=FEPOINT, I=   12 J=    2 ET=BRICK
   0.0000000000E+00   0.5858198296E-02   0.5858198296E-02   0.0000000000E+00   0.1512753854E-06   0.1512753854E-06   0.0000000000E+00   0.5858047020E-02   0.5858047020E-02   0.3626399844E+03   0.1671116671E+02   0.1671116671E+02   0.9897459606E+00   0.9897459606E+00   0.5204272007E-10   0.2321530264E-01   0.2035460172E-01   0.2538080781E-01
   0.1025691362E+01   0.5794184791E-02   0.5794184791E-02   0.4874028112E-06   0.1707182506E-06   0.1707182506E-06   0.2569087460E-01   0.5794014072E-02   0.5794014072E-02   0.3495923029E+03   0.3712979064E+01   0.3712979064E+01   0.1004286345E+01   0.1004286345E+01   0.1154478382E-10   0.2303686539E-01   0.2020288044E-01   0.2516504977E-01
   0.1025691362E+01   0.9942058152E+00   0.5794184791E-02   0.4874028112E-06  -0.1707182506E-06   0.1707182506E-06   0.2569087460E-01  -0.5794014072E-02   0.5794014072E-02   0.3495923029E+03   0.3712979064E+01   0.3712979064E+01  -0.1004286345E+01   0.1004286345E+01   0.1368709791E-13   0.2303686539E-01   0.2020288044E-01   0.2516504976E-01
   0.0000000000E+00   0.9941418017E+00   0.5858198296E-02   0.0000000000E+00  -0.1512753854E-06   0.1512753854E-06   0.0000000000E+00  -0.5858047020E-02   0.5858047020E-02   0.3626399844E+03   0.1671116671E+02   0.1671116671E+02  -0.9897459606E+00   0.9897459606E+00   0.1015714272E-13   0.2321530264E-01   0.2035460172E-01   0.2538080780E-01
   0.0000000000E+00   0.5858198296E-02   0.9941418017E+00   0.0000000000E+00   0.1512753854E-06  -0.1512753854E-06   0.0000000000E+00   0.5858047020E-02  -0.5858047020E-02   0.3626399844E+03   0.1671116671E+02   0.1671116671E+02   0.9897459606E+00  -0.9897459606E+00   0.3098170304E-13   0.2321530264E-01   0.2035460172E-01   0.2538080780E-01
   0.1025691362E+01   0.5794184791E-02   0.9942058152E+00   0.4874028112E-06   0.1707182506E-06  -0.1707182506E-06   0.2569087460E-01   0.5794014072E-02  -0.5794014072E-02   0.3495923029E+03   0.3712979064E+01   0.3712979064E+01   0.1004286345E+01  -0.1004286345E+01   0.7158731890E-14   0.2303686539E-01   0.2020288044E-01   0.2516504976E-01
   0.1025691362E+01   0.9942058152E+00   0.9942058152E+00   0.4874028112E-06  -0.1707182506E-06  -0.1707182506E-06   0.2569087460E-01  -0.5794014072E-02  -0.5794014072E-02   0.3495923028E+03   0.3712979064E+01   0.3712979064E+01  -0.1004286345E+01  -0.1004286345E+01  -0.1152393799E-10   0.2303686539E-01   0.2020288044E-01   0.2516504976E-01
   0.0000000000E+00   0.9941418017E+00   0.9941418017E+00   0.0000000000E+00  -0.1512753854E-06  -0.1512753854E-06   0.0000000000E+00  -0.5858047020E-02  -0.5858047020E-02   0.3626399844E+03   0.1671116671E+02   0.1671116671E+02  -0.9897459605E+00  -0.9897459605E+00  -0.5200158122E-10   0.2321530264E-01   0.2035460171E-01   0.2538080780E-01
   0.2051000000E+01   0.5861325309E-02   0.5861325309E-02   0.1000000000E-05   0.1874521880E-06   0.1874521880E-06   0.5099900000E-01   0.5861137857E-02   0.5861137857E-02   0.3366006133E+03  -0.9273853710E+01  -0.9273853710E+01   0.1018405478E+01   0.1018405478E+01  -0.8247942791E-11   0.2292869713E-01   0.2011049615E-01   0.2500827093E-01
   0.2051000000E+01   0.9941386747E+00   0.5861325309E-02   0.1000000000E-05  -0.1874521880E-06   0.1874521880E-06   0.5099900000E-01  -0.5861137857E-02   0.5861137857E-02   0.3366006133E+03  -0.9273853709E+01  -0.9273853709E+01  -0.1018405477E+01   0.1018405477E+01   0.1253551981E-13   0.2292869713E-01   0.2011049615E-01   0.2500827093E-01
   0.2051000000E+01   0.5861325309E-02   0.9941386747E+00   0.1000000000E-05   0.1874521880E-06  -0.1874521880E-06   0.5099900000E-01   0.5861137857E-02  -0.5861137857E-02   0.3366006133E+03  -0.9273853709E+01  -0.9273853709E+01   0.1018405477E+01  -0.1018405477E+01  -0.7117170611E-15   0.2292869713E-01   0.2011049615E-01   0.2500827093E-01
   0.2051000000E+01   0.9941386747E+00   0.9941386747E+00   0.1000000000E-05  -0.1874521880E-06  -0.1874521880E-06   0.5099900000E-01  -0.5861137857E-02  -0.5861137857E-02   0.3366006133E+03  -0.9273853709E+01  -0.9273853709E+01  -0.1018405477E+01  -0.1018405477E+01   0.8259766593E-11   0.2292869713E-01   0.2011049615E-01   0.2500827093E-01
     1     2     3     4     5     6     7     8
     2     9    10     3     6    11    12     7
 VARIABLES = X,Y,Z,DU1,DU2,DU3,U1,U2,U3,S11,S22,S33,S12,S13,S23,OMEGA,EP,E11
 ZONE, T="0.5200D+00" F=FEPOINT, I=   12 J=    2 ET=BRICK
   0.0000000000E+00   0.6099943334E-02   0.6099943334E-02   0.0000000000E+00   0.2220061599E-06   0.2220061599E-06   0.0000000000E+00   0.6099721328E-02   0.6099721328E-02   0.3337325609E+03  -0.1242327128E+02  -0.1242327128E+02   0.1926400370E+00   0.1926400370E+00  -0.4402756158E-10   0.2383395555E-01   0.2089966289E-01   0.2578521142E-01
   0.1026086913E+01   0.5952615665E-02   0.5952615665E-02   0.3699230296E-06   0.1072076980E-06   0.1072076980E-06   0.2608654330E-01   0.5952508457E-02   0.5952508457E-02   0.3394641210E+03  -0.6713368305E+01  -0.6713368305E+01   0.1926543256E+00   0.1926543256E+00  -0.2183883680E-10   0.2364944642E-01   0.2073785845E-01   0.2565288019E-01
   0.1026086913E+01   0.9940473843E+00   0.5952615665E-02   0.3699230296E-06  -0.1072076980E-06   0.1072076980E-06   0.2608654330E-01  -0.5952508457E-02   0.5952508457E-02   0.3394641210E+03  -0.6713368305E+01  -0.6713368305E+01  -0.1926543254E+00   0.1926543256E+00   0.1769818374E-13   0.2364944642E-01   0.2073785844E-01   0.2565288019E-01
   0.0000000000E+00   0.9939000567E+00   0.6099943334E-02   0.0000000000E+00  -0.2220061599E-06   0.2220061599E-06   0.0000000000E+00  -0.6099721328E-02   0.6099721328E-02   0.3337325609E+03  -0.1242327128E+02  -0.1242327128E+02  -0.1926400368E+00   0.1926400370E+00   0.2218941218E-13   0.2383395555E-01   0.2089966289E-01   0.2578521142E-01
   0.0000000000E+00   0.6099943334E-02   0.9939000567E+00   0.0000000000E+00   0.2220061599E-06  -0.2220061599E-06   0.0000000000E+00   0.6099721328E-02  -0.6099721328E-02   0.3337325609E+03  -0.1242327128E+02  -0.1242327128E+02   0.1926400370E+00  -0.1926400368E+00   0.2723139926E-13   0.2383395555E-01   0.2089966289E-01   0.2578521142E-01
   0.1026086913E+01   0.5952615665E-02   0.9940473843E+00   0.3699230296E-06   0.1072076980E-06  -0.1072076980E-06   0.2608654330E-01   0.5952508457E-02  -0.5952508457E-02   0.3394641210E+03  -0.6713368305E+01  -0.6713368305E+01   0.1926543256E+00  -0.1926543254E+00  -0.5012405843E-14   0.2364944642E-01   0.2073785844E-01   0.2565288019E-01
   0.1026086913E+01   0.9940473843E+00   0.9940473843E+00   0.3699230296E-06  -0.1072076980E-06  -0.1072076980E-06   0.2608654330E-01  -0.5952508457E-02  -0.5952508457E-02   0.3394641210E+03  -0.6713368305E+01  -0.6713368305E+01  -0.1926543254E+00  -0.1926543254E+00   0.2185152258E-10   0.2364944642E-01   0.2073785844E-01   0.2565288019E-01
   0.0000000000E+00   0.9939000567E+00   0.9939000567E+00   0.0000000000E+00  -0.2220061599E-06  -0.2220061599E-06   0.0000000000E+00  -0.6099721328E-02  -0.6099721328E-02   0.3337325608E+03  -0.1242327128E+02  -0.1242327128E+02  -0.1926400368E+00  -0.1926400368E+00   0.4407698239E-10   0.2383395555E-01   0.2089966289E-01   0.2578521142E-01
   0.2052000000E+01   0.5933125041E-02   0.5933125041E-02   0.1000000000E-05  -0.1127506955E-07  -0.1127506955E-07   0.5199900000E-01   0.5933136316E-02   0.5933136316E-02   0.3451956224E+03  -0.9636653720E+00  -0.9636653720E+00   0.1925208840E+00   0.1925208840E+00   0.1841558098E-10   0.2353431778E-01   0.2063497567E-01   0.2557806167E-01
   0.2052000000E+01   0.9940668750E+00   0.5933125041E-02   0.1000000000E-05   0.1127506955E-07  -0.1127506954E-07   0.5199900000E-01  -0.5933136316E-02   0.5933136316E-02   0.3451956224E+03  -0.9636653719E+00  -0.9636653720E+00  -0.1925208838E+00   0.1925208840E+00   0.1581978093E-13   0.2353431778E-01   0.2063497567E-01   0.2557806167E-01
   0.2052000000E+01   0.5933125041E-02   0.9940668750E+00   0.1000000000E-05  -0.1127506954E-07   0.1127506955E-07   0.5199900000E-01   0.5933136316E-02  -0.5933136316E-02   0.3451956224E+03  -0.9636653720E+00  -0.9636653719E+00   0.1925208840E+00  -0.1925208838E+00  -0.6918799482E-14   0.2353431778E-01   0.2063497567E-01   0.2557806167E-01
   0.2052000000E+01   0.9940668750E+00   0.9940668750E+00   0.1000000000E-05   0.1127506954E-07   0.1127506954E-07   0.5199900000E-01  -0.5933136316E-02  -0.5933136316E-02   0.3451956224E+03  -0.9636653719E+00  -0.9636653719E+00  -0.1925208838E+00  -0.1925208838E+00  -0.1840668000E-10   0.2353431778E-01   0.2063497567E-01   0.2557806167E-01
     1     2     3     4     5     6     7     8
     2     9    10     3     6    11    12     7
 VARIABLES = X,Y,Z,DU1,DU2,DU3,U1,U2,U3,S11,S22,S33,S12,S13,S23,OMEGA,EP,E11
 ZONE, T="0.5300D+00" F=FEPOINT, I=   12 J=    2 ET=BRICK
   0.0000000000E+00   0.6180622280E-02   0.6180622280E-02   0.0000000000E+00  -0.2270745661E-07  -0.2270745661E-07   0.0000000000E+00   0.6180644988E-02   0.6180644988E-02   0.3440499543E+03  -0.2516160530E+01  -0.2516160530E+01   0.1460108076E+00   0.1460108076E+00  -0.2316119377E-10   0.2430917082E-01   0.2130939563E-01   0.2624962829E-01
   0.1026562508E+01   0.6028055998E-02   0.6028055998E-02   0.5902189326E-06   0.9100206120E-07   0.9100206120E-07   0.2656191751E-01   0.6027964996E-02   0.6027964996E-02   0.3523313655E+03   0.5904454941E+01   0.5904454941E+01   0.1312813012E+00   0.1312813012E+00   0.1009426306E-10   0.2413083385E-01   0.2115971601E-01   0.2614049931E-01
   0.1026562508E+01   0.9939719440E+00   0.6028055998E-02   0.5902189326E-06  -0.9100206119E-07   0.9100206120E-07   0.2656191751E-01  -0.6027964996E-02   0.6027964996E-02   0.3523313654E+03   0.5904454941E+01   0.5904454941E+01  -0.1312813010E+00   0.1312813012E+00   0.8945316655E-15   0.2413083385E-01   0.2115971601E-01   0.2614049931E-01
   0.0000000000E+00   0.9938193777E+00   0.6180622280E-02   0.0000000000E+00   0.2270745661E-07  -0.2270745660E-07   0.0000000000E+00  -0.6180644987E-02   0.6180644988E-02   0.3440499543E+03  -0.2516160530E+01  -0.2516160530E+01  -0.1460108075E+00   0.1460108076E+00  -0.7664892942E-14   0.2430917082E-01   0.2130939563E-01   0.2624962829E-01
   0.0000000000E+00   0.6180622280E-02   0.9938193777E+00   0.0000000000E+00  -0.2270745660E-07   0.2270745661E-07   0.0000000000E+00   0.6180644988E-02  -0.6180644987E-02   0.3440499543E+03  -0.2516160530E+01  -0.2516160530E+01   0.1460108076E+00  -0.1460108075E+00  -0.3204273323E-14   0.2430917082E-01   0.2130939563E-01   0.2624962829E-01
   0.1026562508E+01   0.6028055998E-02   0.9939719440E+00   0.5902189326E-06   0.9100206120E-07  -0.9100206119E-07   0.2656191751E-01   0.6027964996E-02  -0.6027964996E-02   0.3523313654E+03   0.5904454941E+01   0.5904454941E+01   0.1312813012E+00  -0.1312813010E+00  -0.1953287488E-13   0.2413083385E-01   0.2115971601E-01   0.2614049931E-01
   0.1026562508E+01   0.9939719440E+00   0.9939719440E+00   0.5902189326E-06  -0.9100206119E-07  -0.9100206119E-07   0.2656191751E-01  -0.6027964996E-02  -0.6027964996E-02   0.3523313654E+03   0.5904454941E+01   0.5904454941E+01  -0.1312813010E+00  -0.1312813010E+00  -0.1011290141E-10   0.2413083385E-01   0.2115971601E-01   0.2614049931E-01
   0.0000000000E+00   0.9938193777E+00   0.9938193777E+00   0.0000000000E+00   0.2270745661E-07   0.2270745661E-07   0.0000000000E+00  -0.6180644987E-02  -0.6180644987E-02   0.3440499543E+03  -0.2516160530E+01  -0.2516160530E+01  -0.1460108075E+00  -0.1460108075E+00   0.2315032460E-10   0.2430917082E-01   0.2130939563E-01   0.2624962829E-01
   0.2053000000E+01   0.5999693967E-02   0.5999693967E-02   0.1000000000E-05   0.2013273969E-06   0.2013273969E-06   0.5299900000E-01   0.5999492639E-02   0.5999492639E-02   0.3606276587E+03   0.1435644445E+02   0.1435644445E+02   0.1165077963E+00   0.1165077963E+00   0.5351381381E-10   0.2401971981E-01   0.2106701600E-01   0.2608725837E-01
   0.2053000000E+01   0.9940003060E+00   0.5999693967E-02   0.1000000000E-05  -0.2013273969E-06   0.2013273969E-06   0.5299900000E-01  -0.5999492639E-02   0.5999492639E-02   0.3606276587E+03   0.1435644445E+02   0.1435644445E+02  -0.1165077962E+00   0.1165077963E+00   0.4819875099E-14   0.2401971981E-01   0.2106701600E-01   0.2608725837E-01
   0.2053000000E+01   0.5999693967E-02   0.9940003060E+00   0.1000000000E-05   0.2013273969E-06  -0.2013273969E-06   0.5299900000E-01   0.5999492639E-02  -0.5999492639E-02   0.3606276587E+03   0.1435644445E+02   0.1435644445E+02   0.1165077963E+00  -0.1165077962E+00  -0.1570822746E-13   0.2401971981E-01   0.2106701600E-01   0.2608725837E-01
   0.2053000000E+01   0.9940003060E+00   0.9940003060E+00   0.1000000000E-05  -0.2013273969E-06  -0.2013273969E-06   0.5299900000E-01  -0.5999492639E-02  -0.5999492639E-02   0.3606276587E+03   0.1435644445E+02   0.1435644445E+02  -0.1165077962E+00  -0.1165077962E+00  -0.5352470215E-10   0.2401971981E-01   0.2106701600E-01   0.2608725837E-01
     1     2     3     4     5     6     7     8
     2     9    10     3     6    11    12     7
 VARIABLES = X,Y,Z,DU1,DU2,DU3,U1,U2,U3,S11,S22,S33,S12,S13,S23,OMEGA,EP,E11
 ZONE, T="0.5400D+00" F=FEPOINT, I=   12 J=    2 ET=BRICK
   0.0000000000E+00   0.6219593109E-02   0.6219593109E-02   0.0000000000E+00   0.1513162622E-06   0.1513162622E-06   0.0000000000E+00   0.6219441792E-02   0.6219441792E-02   0.3575067568E+03   0.1090414054E+02   0.1090414054E+02   0.1009011020E+01   0.1009011020E+01   0.7096756985E-11   0.2485443084E-01   0.2179337811E-01   0.2680065167E-01
   0.1027153634E+01   0.6176772342E-02   0.6176772342E-02   0.5178330220E-06   0.1771647609E-06   0.1771647609E-06   0.2715311584E-01   0.6176595177E-02   0.6176595177E-02   0.3447949205E+03  -0.1848288479E+01  -0.1848288479E+01   0.9801982522E+00   0.9801982522E+00  -0.1315045760E-10   0.2472282244E-01   0.2168212463E-01   0.2662777393E-01
   0.1027153634E+01   0.9938232277E+00   0.6176772342E-02   0.5178330220E-06  -0.1771647609E-06   0.1771647609E-06   0.2715311584E-01  -0.6176595177E-02   0.6176595177E-02   0.3447949204E+03  -0.1848288479E+01  -0.1848288479E+01  -0.9801982522E+00   0.9801982522E+00  -0.1271715669E-13   0.2472282244E-01   0.2168212463E-01   0.2662777393E-01
   0.0000000000E+00   0.9937804069E+00   0.6219593109E-02   0.0000000000E+00  -0.1513162621E-06   0.1513162621E-06   0.0000000000E+00  -0.6219441792E-02   0.6219441792E-02   0.3575067568E+03   0.1090414054E+02   0.1090414054E+02  -0.1009011020E+01   0.1009011020E+01  -0.3025746828E-13   0.2485443084E-01   0.2179337811E-01   0.2680065167E-01
   0.0000000000E+00   0.6219593109E-02   0.9937804069E+00   0.0000000000E+00   0.1513162621E-06  -0.1513162621E-06   0.0000000000E+00   0.6219441792E-02  -0.6219441792E-02   0.3575067568E+03   0.1090414054E+02   0.1090414054E+02   0.1009011020E+01  -0.1009011020E+01  -0.1329334343E-13   0.2485443084E-01   0.2179337811E-01   0.2680065167E-01
   0.1027153634E+01   0.6176772342E-02   0.9938232277E+00   0.5178330220E-06   0.1771647609E-06  -0.1771647609E-06   0.2715311584E-01   0.6176595177E-02  -0.6176595177E-02   0.3447949204E+03  -0.1848288479E+01  -0.1848288479E+01   0.9801982522E+00  -0.9801982522E+00  -0.1476292418E-13   0.2472282244E-01   0.2168212463E-01   0.2662777393E-01
   0.1027153634E+01   0.9938232277E+00   0.9938232277E+00   0.5178330219E-06  -0.1771647609E-06  -0.1771647609E-06   0.2715311584E-01  -0.6176595177E-02  -0.6176595177E-02   0.3447949204E+03  -0.1848288479E+01  -0.1848288479E+01  -0.9801982522E+00  -0.9801982522E+00   0.1312297752E-10   0.2472282244E-01   0.2168212463E-01   0.2662777393E-01
   0.0000000000E+00   0.9937804069E+00   0.9937804069E+00   0.0000000000E+00  -0.1513162621E-06  -0.1513162621E-06   0.0000000000E+00  -0.6219441792E-02  -0.6219441792E-02   0.3575067567E+03   0.1090414054E+02   0.1090414054E+02  -0.1009011020E+01  -0.1009011020E+01  -0.7140307796E-11   0.2485443084E-01   0.2179337811E-01   0.2680065166E-01
   0.2054000000E+01   0.6255362030E-02   0.6255362030E-02   0.1000000000E-05   0.2009636738E-06   0.2009636738E-06   0.5399900000E-01   0.6255161066E-02   0.6255161066E-02   0.3320716059E+03  -0.1455779604E+02  -0.1455779604E+02   0.9517853857E+00   0.9517853857E+00  -0.3394145707E-10   0.2465789624E-01   0.2162706591E-01   0.2650953589E-01
   0.2054000000E+01   0.9937446380E+00   0.6255362030E-02   0.1000000000E-05  -0.2009636737E-06   0.2009636737E-06   0.5399900000E-01  -0.6255161066E-02   0.6255161066E-02   0.3320716059E+03  -0.1455779604E+02  -0.1455779604E+02  -0.9517853856E+00   0.9517853857E+00  -0.3164280809E-14   0.2465789624E-01   0.2162706591E-01   0.2650953589E-01
   0.2054000000E+01   0.6255362030E-02   0.9937446380E+00   0.1000000000E-05   0.2009636737E-06  -0.2009636737E-06   0.5399900000E-01   0.6255161066E-02  -0.6255161066E-02   0.3320716059E+03  -0.1455779604E+02  -0.1455779604E+02   0.9517853857E+00  -0.9517853856E+00  -0.1455484990E-13   0.2465789624E-01   0.2162706591E-01   0.2650953589E-01
   0.2054000000E+01   0.9937446380E+00   0.9937446380E+00   0.1000000000E-05  -0.2009636737E-06  -0.2009636737E-06   0.5399900000E-01  -0.6255161066E-02  -0.6255161066E-02   0.3320716059E+03  -0.1455779604E+02  -0.1455779604E+02  -0.9517853856E+00  -0.9517853856E+00   0.3392373794E-10   0.2465789624E-01   0.2162706591E-01   0.2650953589E-01
     1     2     3     4     5     6     7     8
     2     9    10     3     6    11    12     7
 VARIABLES = X,Y,Z,DU1,DU2,DU3,U1,U2,U3,S11,S22,S33,S12,S13,S23,OMEGA,EP,E11
 ZONE, T="0.5500D+00" F=FEPOINT, I=   12 J=    2 ET=BRICK
   0.0000000000E+00   0.6428931592E-02   0.6428931592E-02   0.0000000000E+00   0.1968394482E-06   0.1968394482E-06   0.0000000000E+00   0.6428734752E-02   0.6428734752E-02   0.3392493486E+03  -0.7606386787E+01  -0.7606386787E+01   0.2075411711E+00   0.2075411711E+00  -0.3150144258E-10   0.2544056864E-01   0.2230918592E-01   0.2722854068E-01
   0.1027573708E+01   0.6302146888E-02   0.6302146888E-02   0.3825123612E-06   0.6826061719E-07   0.6826061719E-07   0.2757332589E-01   0.6302078627E-02   0.6302078627E-02   0.3435893407E+03  -0.3341826283E+01  -0.3341826283E+01   0.1801555031E+00   0.1801555031E+00  -0.1038104456E-10   0.2528582709E-01   0.2217225243E-01   0.2711464406E-01
   0.1027573708E+01   0.9936978531E+00   0.6302146888E-02   0.3825123612E-06  -0.6826061719E-07   0.6826061720E-07   0.2757332589E-01  -0.6302078627E-02   0.6302078627E-02   0.3435893407E+03  -0.3341826283E+01  -0.3341826283E+01  -0.1801555032E+00   0.1801555031E+00  -0.1082034375E-13   0.2528582708E-01   0.2217225243E-01   0.2711464406E-01
   0.0000000000E+00   0.9935710684E+00   0.6428931592E-02   0.0000000000E+00  -0.1968394482E-06   0.1968394482E-06   0.0000000000E+00  -0.6428734752E-02   0.6428734752E-02   0.3392493486E+03  -0.7606386787E+01  -0.7606386787E+01  -0.2075411712E+00   0.2075411711E+00  -0.1948762031E-13   0.2544056864E-01   0.2230918592E-01   0.2722854068E-01
   0.0000000000E+00   0.6428931592E-02   0.9935710684E+00   0.0000000000E+00   0.1968394482E-06  -0.1968394482E-06   0.0000000000E+00   0.6428734752E-02  -0.6428734752E-02   0.3392493486E+03  -0.7606386787E+01  -0.7606386787E+01   0.2075411711E+00  -0.2075411712E+00   0.1354862695E-13   0.2544056864E-01   0.2230918592E-01   0.2722854068E-01
   0.1027573708E+01   0.6302146888E-02   0.9936978531E+00   0.3825123612E-06   0.6826061720E-07  -0.6826061719E-07   0.2757332589E-01   0.6302078627E-02  -0.6302078627E-02   0.3435893407E+03  -0.3341826283E+01  -0.3341826283E+01   0.1801555031E+00  -0.1801555032E+00   0.1118908247E-13   0.2528582708E-01   0.2217225243E-01   0.2711464406E-01
   0.1027573708E+01   0.9936978531E+00   0.9936978531E+00   0.3825123612E-06  -0.6826061719E-07  -0.6826061719E-07   0.2757332589E-01  -0.6302078627E-02  -0.6302078627E-02   0.3435893407E+03  -0.3341826283E+01  -0.3341826283E+01  -0.1801555032E+00  -0.1801555032E+00   0.1038141330E-10   0.2528582708E-01   0.2217225243E-01   0.2711464406E-01
   0.0000000000E+00   0.9935710684E+00   0.9935710684E+00   0.0000000000E+00  -0.1968394482E-06  -0.1968394482E-06   0.0000000000E+00  -0.6428734752E-02  -0.6428734752E-02   0.3392493486E+03  -0.7606386787E+01  -0.7606386787E+01  -0.2075411712E+00  -0.2075411712E+00   0.3149550358E-10   0.2544056864E-01   0.2230918592E-01   0.2722854068E-01
   0.2055000000E+01   0.6295634192E-02   0.6295634192E-02   0.1000000000E-05  -0.6052081609E-07  -0.6052081609E-07   0.5499900000E-01   0.6295694713E-02   0.6295694713E-02   0.3478912582E+03   0.9801278642E+00   0.9801278642E+00   0.1528464237E+00   0.1528464237E+00   0.5907390467E-12   0.2519724502E-01   0.2209153189E-01   0.2705489144E-01
   0.2055000000E+01   0.9937043658E+00   0.6295634192E-02   0.1000000000E-05   0.6052081609E-07  -0.6052081609E-07   0.5499900000E-01  -0.6295694713E-02   0.6295694713E-02   0.3478912582E+03   0.9801278641E+00   0.9801278641E+00  -0.1528464238E+00   0.1528464237E+00   0.2131531856E-14   0.2519724502E-01   0.2209153189E-01   0.2705489144E-01
   0.2055000000E+01   0.6295634192E-02   0.9937043658E+00   0.1000000000E-05  -0.6052081609E-07   0.6052081609E-07   0.5499900000E-01   0.6295694713E-02  -0.6295694713E-02   0.3478912582E+03   0.9801278641E+00   0.9801278641E+00   0.1528464237E+00  -0.1528464238E+00  -0.3326669337E-14   0.2519724502E-01   0.2209153189E-01   0.2705489144E-01
   0.2055000000E+01   0.9937043658E+00   0.9937043658E+00   0.1000000000E-05   0.6052081608E-07   0.6052081608E-07   0.5499900000E-01  -0.6295694713E-02  -0.6295694713E-02   0.3478912582E+03   0.9801278641E+00   0.9801278641E+00  -0.1528464238E+00  -0.1528464238E+00  -0.5919341841E-12   0.2519724502E-01   0.2209153189E-01   0.2705489144E-01
     1     2     3     4     5     6     7     8
     2     9    10     3     6    11    12     7
 VARIABLES = X,Y,Z,DU1,DU2,DU3,U1,U2,U3,S11,S22,S33,S12,S13,S23,OMEGA,EP,E11
 ZONE, T="0.5600D+00" F=FEPOINT, I=   12 J=    2 ET=BRICK
   0.0000000000E+00   0.6539917377E-02   0.6539917377E-02   0.0000000000E+00   0.4324624662E-07   0.4324624662E-07   0.0000000000E+00   0.6539874131E-02   0.6539874131E-02   0.3442535428E+03  -0.2761295987E+01  -0.2761295987E+01  -0.1513647221E-01  -0.1513647221E-01  -0.9073312934E-12   0.2595538114E-01   0.2275636310E-01   0.2770178698E-01
   0.1028054084E+01   0.6386393904E-02   0.6386393904E-02   0.5955089954E-06   0.1370579331E-06   0.1370579331E-06   0.2805348855E-01   0.6386256846E-02   0.6386256846E-02   0.3535665602E+03   0.6545257529E+01   0.6545257529E+01  -0.3705160323E-01  -0.3705160323E-01   0.2291257183E-10   0.2578096196E-01   0.2260864422E-01   0.2760106758E-01
   0.1028054084E+01   0.9936136061E+00   0.6386393904E-02   0.5955089954E-06  -0.1370579331E-06   0.1370579331E-06   0.2805348855E-01  -0.6386256846E-02   0.6386256846E-02   0.3535665602E+03   0.6545257528E+01   0.6545257528E+01   0.3705160307E-01  -0.3705160323E-01  -0.9700232707E-15   0.2578096196E-01   0.2260864422E-01   0.2760106758E-01
   0.0000000000E+00   0.9934600826E+00   0.6539917377E-02   0.0000000000E+00  -0.4324624662E-07   0.4324624662E-07   0.0000000000E+00  -0.6539874130E-02   0.6539874131E-02   0.3442535428E+03  -0.2761295986E+01  -0.2761295986E+01   0.1513647209E-01  -0.1513647221E-01  -0.1665514138E-14   0.2595538114E-01   0.2275636310E-01   0.2770178698E-01
   0.0000000000E+00   0.6539917377E-02   0.9934600826E+00   0.0000000000E+00   0.4324624662E-07  -0.4324624662E-07   0.0000000000E+00   0.6539874131E-02  -0.6539874130E-02   0.3442535428E+03  -0.2761295986E+01  -0.2761295986E+01  -0.1513647221E-01   0.1513647209E-01   0.3240744559E-13   0.2595538114E-01   0.2275636310E-01   0.2770178698E-01
   0.1028054084E+01   0.6386393904E-02   0.9936136061E+00   0.5955089954E-06   0.1370579331E-06  -0.1370579331E-06   0.2805348855E-01   0.6386256846E-02  -0.6386256846E-02   0.3535665602E+03   0.6545257528E+01   0.6545257528E+01  -0.3705160323E-01   0.3705160307E-01   0.3268151315E-13   0.2578096196E-01   0.2260864422E-01   0.2760106758E-01
   0.1028054084E+01   0.9936136061E+00   0.9936136061E+00   0.5955089954E-06  -0.1370579331E-06  -0.1370579331E-06   0.2805348855E-01  -0.6386256846E-02  -0.6386256846E-02   0.3535665602E+03   0.6545257528E+01   0.6545257528E+01   0.3705160306E-01   0.3705160306E-01  -0.2288086034E-10   0.2578096196E-01   0.2260864422E-01   0.2760106758E-01
   0.0000000000E+00   0.9934600826E+00   0.9934600826E+00   0.0000000000E+00  -0.4324624662E-07  -0.4324624662E-07   0.0000000000E+00  -0.6539874130E-02  -0.6539874130E-02   0.3442535428E+03  -0.2761295986E+01  -0.2761295986E+01   0.1513647209E-01   0.1513647209E-01   0.9380732248E-12   0.2595538114E-01   0.2275636310E-01   0.2770178698E-01
   0.2056000000E+01   0.6353812787E-02   0.6353812787E-02   0.1000000000E-05   0.2323505381E-06   0.2323505381E-06   0.5599900000E-01   0.6353580436E-02   0.6353580436E-02   0.3628081428E+03   0.1592528537E+02   0.1592528537E+02  -0.5896367707E-01  -0.5896367707E-01   0.3099620578E-10   0.2567402842E-01   0.2251808289E-01   0.2755480636E-01
   0.2056000000E+01   0.9936461872E+00   0.6353812787E-02   0.1000000000E-05  -0.2323505381E-06   0.2323505381E-06   0.5599900000E-01  -0.6353580436E-02   0.6353580436E-02   0.3628081428E+03   0.1592528537E+02   0.1592528537E+02   0.5896367694E-01  -0.5896367706E-01   0.1963911600E-13   0.2567402841E-01   0.2251808289E-01   0.2755480636E-01
   0.2056000000E+01   0.6353812787E-02   0.9936461872E+00   0.1000000000E-05   0.2323505381E-06  -0.2323505381E-06   0.5599900000E-01   0.6353580436E-02  -0.6353580436E-02   0.3628081428E+03   0.1592528537E+02   0.1592528537E+02  -0.5896367706E-01   0.5896367694E-01   0.8756089175E-14   0.2567402841E-01   0.2251808289E-01   0.2755480636E-01
   0.2056000000E+01   0.9936461872E+00   0.9936461872E+00   0.1000000000E-05  -0.2323505381E-06  -0.2323505381E-06   0.5599900000E-01  -0.6353580436E-02  -0.6353580436E-02   0.3628081428E+03   0.1592528536E+02   0.1592528536E+02   0.5896367694E-01   0.5896367694E-01  -0.3096781057E-10   0.2567402841E-01   0.2251808289E-01   0.2755480636E-01
     1     2     3     4     5     6     7     8
     2     9    10     3     6    11    12     7
 VARIABLES = X,Y,Z,DU1,DU2,DU3,U1,U2,U3,S11,S22,S33,S12,S13,S23,OMEGA,EP,E11
 ZONE, T="0.5700D+00" F=FEPOINT, I=   12 J=    2 ET=BRICK
   0.0000000000E+00   0.6601140417E-02   0.6601140417E-02   0.0000000000E+00   0.1137014400E-06   0.1137014400E-06   0.0000000000E+00   0.6601026716E-02   0.6601026716E-02   0.3534869762E+03   0.6289684613E+01   0.6289684613E+01   0.8148992975E+00   0.8148992975E+00   0.2760877848E-10   0.2654556119E-01   0.2327667538E-01   0.2826967202E-01
   0.1028662048E+01   0.6551323217E-02   0.6551323217E-02   0.5441277468E-06   0.1452045989E-06   0.1452045989E-06   0.2866150382E-01   0.6551178012E-02   0.6551178012E-02   0.3410356440E+03  -0.6120161480E+01  -0.6120161480E+01   0.8019918361E+00   0.8019918361E+00  -0.9135705142E-11   0.2640340786E-01   0.2315516952E-01   0.2808708308E-01
   0.1028662048E+01   0.9934486768E+00   0.6551323217E-02   0.5441277468E-06  -0.1452045989E-06   0.1452045989E-06   0.2866150382E-01  -0.6551178012E-02   0.6551178012E-02   0.3410356440E+03  -0.6120161480E+01  -0.6120161480E+01  -0.8019918361E+00   0.8019918360E+00  -0.8702406370E-14   0.2640340786E-01   0.2315516952E-01   0.2808708308E-01
   0.0000000000E+00   0.9933988596E+00   0.6601140417E-02   0.0000000000E+00  -0.1137014400E-06   0.1137014400E-06   0.0000000000E+00  -0.6601026715E-02   0.6601026716E-02   0.3534869762E+03   0.6289684613E+01   0.6289684613E+01  -0.8148992974E+00   0.8148992975E+00  -0.1043259420E-13   0.2654556119E-01   0.2327667538E-01   0.2826967202E-01
   0.0000000000E+00   0.6601140417E-02   0.9933988596E+00   0.0000000000E+00   0.1137014400E-06  -0.1137014400E-06   0.0000000000E+00   0.6601026716E-02  -0.6601026715E-02   0.3534869762E+03   0.6289684613E+01   0.6289684613E+01   0.8148992975E+00  -0.8148992974E+00   0.7979348607E-14   0.2654556119E-01   0.2327667538E-01   0.2826967202E-01
   0.1028662048E+01   0.6551323217E-02   0.9934486768E+00   0.5441277468E-06   0.1452045989E-06  -0.1452045989E-06   0.2866150382E-01   0.6551178012E-02  -0.6551178012E-02   0.3410356440E+03  -0.6120161480E+01  -0.6120161480E+01   0.8019918360E+00  -0.8019918361E+00   0.1860746349E-13   0.2640340786E-01   0.2315516952E-01   0.2808708308E-01
   0.1028662048E+01   0.9934486768E+00   0.9934486768E+00   0.5441277468E-06  -0.1452045989E-06  -0.1452045989E-06   0.2866150382E-01  -0.6551178012E-02  -0.6551178012E-02   0.3410356440E+03  -0.6120161479E+01  -0.6120161479E+01  -0.8019918360E+00  -0.8019918360E+00   0.9145610198E-11   0.2640340786E-01   0.2315516952E-01   0.2808708308E-01
   0.0000000000E+00   0.9933988596E+00   0.9933988596E+00   0.0000000000E+00  -0.1137014400E-06  -0.1137014400E-06   0.0000000000E+00  -0.6601026715E-02  -0.6601026715E-02   0.3534869762E+03   0.6289684613E+01   0.6289684613E+01  -0.8148992974E+00  -0.8148992974E+00  -0.2761123172E-10   0.2654556119E-01   0.2327667538E-01   0.2826967202E-01
   0.2057000000E+01   0.6624512161E-02   0.6624512161E-02   0.1000000000E-05   0.1792194303E-06   0.1792194303E-06   0.5699900000E-01   0.6624332942E-02   0.6624332942E-02   0.3286918379E+03  -0.1854615453E+02  -0.1854615453E+02   0.7895876801E+00   0.7895876801E+00  -0.6131574909E-10   0.2632614713E-01   0.2308837083E-01   0.2795989179E-01
   0.2057000000E+01   0.9933754878E+00   0.6624512161E-02   0.1000000000E-05  -0.1792194303E-06   0.1792194303E-06   0.5699900000E-01  -0.6624332942E-02   0.6624332942E-02   0.3286918379E+03  -0.1854615453E+02  -0.1854615453E+02  -0.7895876801E+00   0.7895876801E+00   0.1776788836E-13   0.2632614713E-01   0.2308837082E-01   0.2795989179E-01
   0.2057000000E+01   0.6624512161E-02   0.9933754878E+00   0.1000000000E-05   0.1792194303E-06  -0.1792194303E-06   0.5699900000E-01   0.6624332942E-02  -0.6624332942E-02   0.3286918379E+03  -0.1854615453E+02  -0.1854615453E+02   0.7895876801E+00  -0.7895876801E+00  -0.7659757019E-14   0.2632614713E-01   0.2308837082E-01   0.2795989179E-01
   0.2057000000E+01   0.9933754878E+00   0.9933754878E+00   0.1000000000E-05  -0.1792194303E-06  -0.1792194303E-06   0.5699900000E-01  -0.6624332942E-02  -0.6624332942E-02   0.3286918378E+03  -0.1854615453E+02  -0.1854615453E+02  -0.7895876800E+00  -0.7895876800E+00   0.6132585721E-10   0.2632614713E-01   0.2308837082E-01   0.2795989179E-01
     1     2     3     4     5     6     7     8
     2     9    10     3     6    11    12     7
 VARIABLES = X,Y,Z,DU1,DU2,DU3,U1,U2,U3,S11,S22,S33,S12,S13,S23,OMEGA,EP,E11
 ZONE, T="0.5800D+00" F=FEPOINT, I=   12 J=    2 ET=BRICK
   0.0000000000E+00   0.6772189162E-02   0.6772189162E-02   0.0000000000E+00   0.2018026166E-06   0.2018026166E-06   0.0000000000E+00   0.6771987360E-02   0.6771987360E-02   0.3469763503E+03  -0.4800381181E+00  -0.4800381181E+00   0.5222215642E-01   0.5222215642E-01   0.1062142544E-10   0.2708613580E-01   0.2375375125E-01   0.2871679824E-01
   0.1029102856E+01   0.6639905994E-02   0.6639905994E-02   0.3911180255E-06   0.6379679018E-07   0.6379679018E-07   0.2910246528E-01   0.6639842197E-02   0.6639842197E-02   0.3496906436E+03   0.2292153568E+01   0.2292153568E+01   0.5465955060E-01   0.5465955060E-01   0.1566830715E-10   0.2690884776E-01   0.2359597117E-01   0.2857281971E-01
   0.1029102856E+01   0.9933600940E+00   0.6639905994E-02   0.3911180255E-06  -0.6379679018E-07   0.6379679019E-07   0.2910246528E-01  -0.6639842197E-02   0.6639842197E-02   0.3496906436E+03   0.2292153568E+01   0.2292153568E+01  -0.5465955046E-01   0.5465955060E-01  -0.1808696821E-13   0.2690884776E-01   0.2359597117E-01   0.2857281971E-01
   0.0000000000E+00   0.9932278108E+00   0.6772189162E-02   0.0000000000E+00  -0.2018026166E-06   0.2018026166E-06   0.0000000000E+00  -0.6771987359E-02   0.6771987360E-02   0.3469763502E+03  -0.4800381180E+00  -0.4800381181E+00  -0.5222215632E-01   0.5222215642E-01  -0.2705667403E-13   0.2708613580E-01   0.2375375125E-01   0.2871679824E-01
   0.0000000000E+00   0.6772189162E-02   0.9932278108E+00   0.0000000000E+00   0.2018026166E-06  -0.2018026166E-06   0.0000000000E+00   0.6771987360E-02  -0.6771987359E-02   0.3469763502E+03  -0.4800381181E+00  -0.4800381180E+00   0.5222215642E-01  -0.5222215632E-01  -0.1805087126E-13   0.2708613580E-01   0.2375375125E-01   0.2871679824E-01
   0.1029102856E+01   0.6639905994E-02   0.9933600940E+00   0.3911180255E-06   0.6379679019E-07  -0.6379679018E-07   0.2910246528E-01   0.6639842197E-02  -0.6639842197E-02   0.3496906436E+03   0.2292153568E+01   0.2292153568E+01   0.5465955060E-01  -0.5465955046E-01  -0.4737328988E-14   0.2690884776E-01   0.2359597117E-01   0.2857281971E-01
   0.1029102856E+01   0.9933600940E+00   0.9933600940E+00   0.3911180255E-06  -0.6379679018E-07  -0.6379679018E-07   0.2910246528E-01  -0.6639842197E-02  -0.6639842197E-02   0.3496906436E+03   0.2292153567E+01   0.2292153567E+01  -0.5465955045E-01  -0.5465955045E-01  -0.1569113145E-10   0.2690884776E-01   0.2359597117E-01   0.2857281971E-01
   0.0000000000E+00   0.9932278108E+00   0.9932278108E+00   0.0000000000E+00  -0.2018026166E-06  -0.2018026166E-06   0.0000000000E+00  -0.6771987359E-02  -0.6771987359E-02   0.3469763502E+03  -0.4800381180E+00  -0.4800381180E+00  -0.5222215632E-01  -0.5222215632E-01  -0.1066653298E-10   0.2708613580E-01   0.2375375125E-01   0.2871679824E-01
   0.2058000000E+01   0.6633251076E-02   0.6633251076E-02   0.1000000000E-05  -0.7165920185E-07  -0.7165920185E-07   0.5799900000E-01   0.6633322735E-02   0.6633322735E-02   0.3524353744E+03   0.5088979802E+01   0.5088979802E+01   0.5711989069E-01   0.5711989069E-01   0.9634751959E-11   0.2679896103E-01   0.2349560264E-01   0.2848543424E-01
   0.2058000000E+01   0.9933667489E+00   0.6633251076E-02   0.1000000000E-05   0.7165920185E-07  -0.7165920184E-07   0.5799900000E-01  -0.6633322735E-02   0.6633322735E-02   0.3524353744E+03   0.5088979802E+01   0.5088979802E+01  -0.5711989060E-01   0.5711989068E-01   0.2309384586E-13   0.2679896103E-01   0.2349560264E-01   0.2848543424E-01
   0.2058000000E+01   0.6633251076E-02   0.9933667489E+00   0.1000000000E-05  -0.7165920184E-07   0.7165920185E-07   0.5799900000E-01   0.6633322735E-02  -0.6633322735E-02   0.3524353744E+03   0.5088979802E+01   0.5088979802E+01   0.5711989068E-01  -0.5711989060E-01  -0.2625730994E-13   0.2679896103E-01   0.2349560264E-01   0.2848543424E-01
   0.2058000000E+01   0.9933667489E+00   0.9933667489E+00   0.1000000000E-05   0.7165920184E-07   0.7165920184E-07   0.5799900000E-01  -0.6633322735E-02  -0.6633322735E-02   0.3524353743E+03   0.5088979801E+01   0.5088979801E+01  -0.5711989060E-01  -0.5711989060E-01  -0.9637915423E-11   0.2679896103E-01   0.2349560264E-01   0.2848543424E-01
     1     2     3     4     5     6     7     8
     2     9    10     3     6    11    12     7
 VARIABLES = X,Y,Z,DU1,DU2,DU3,U1,U2,U3,S11,S22,S33,S12,S13,S23,OMEGA,EP,E11
 ZONE, T="0.5900D+00" F=FEPOINT, I=   12 J=    2 ET=BRICK
   0.0000000000E+00   0.6933025444E-02   0.6933025444E-02   0.0000000000E+00   0.9412572190E-07   0.9412572190E-07   0.0000000000E+00   0.6932931318E-02   0.6932931318E-02   0.3403511043E+03  -0.7238964070E+01  -0.7238964070E+01  -0.2881403886E+00  -0.2881403886E+00  -0.1334856960E-10   0.2766799801E-01   0.2426087037E-01   0.2919236407E-01
   0.1029582399E+01   0.6757115130E-02   0.6757115130E-02   0.5932856243E-06   0.1724220044E-06   0.1724220044E-06   0.2958180532E-01   0.6756942708E-02   0.6756942708E-02   0.3503973697E+03   0.2837199771E+01   0.2837199771E+01  -0.2780891854E+00  -0.2780891854E+00   0.1035672115E-10   0.2745285578E-01   0.2407650634E-01   0.2905835972E-01
   0.1029582399E+01   0.9932428849E+00   0.6757115130E-02   0.5932856243E-06  -0.1724220044E-06   0.1724220044E-06   0.2958180532E-01  -0.6756942708E-02   0.6756942708E-02   0.3503973697E+03   0.2837199771E+01   0.2837199771E+01   0.2780891856E+00  -0.2780891854E+00  -0.6196742787E-15   0.2745285578E-01   0.2407650634E-01   0.2905835972E-01
   0.0000000000E+00   0.9930669746E+00   0.6933025444E-02   0.0000000000E+00  -0.9412572190E-07   0.9412572190E-07   0.0000000000E+00  -0.6932931318E-02   0.6932931318E-02   0.3403511043E+03  -0.7238964070E+01  -0.7238964070E+01   0.2881403887E+00  -0.2881403886E+00  -0.1503147997E-13   0.2766799801E-01   0.2426087037E-01   0.2919236406E-01
   0.0000000000E+00   0.6933025444E-02   0.9930669746E+00   0.0000000000E+00   0.9412572190E-07  -0.9412572190E-07   0.0000000000E+00   0.6932931318E-02  -0.6932931318E-02   0.3403511043E+03  -0.7238964070E+01  -0.7238964070E+01  -0.2881403886E+00   0.2881403887E+00  -0.1097723784E-13   0.2766799801E-01   0.2426087037E-01   0.2919236406E-01
   0.1029582399E+01   0.6757115130E-02   0.9932428849E+00   0.5932856243E-06   0.1724220044E-06  -0.1724220044E-06   0.2958180532E-01   0.6756942708E-02  -0.6756942708E-02   0.3503973697E+03   0.2837199771E+01   0.2837199771E+01  -0.2780891854E+00   0.2780891856E+00  -0.4378165897E-14   0.2745285578E-01   0.2407650634E-01   0.2905835972E-01
   0.1029582399E+01   0.9932428849E+00   0.9932428849E+00   0.5932856243E-06  -0.1724220044E-06  -0.1724220044E-06   0.2958180532E-01  -0.6756942708E-02  -0.6756942708E-02   0.3503973697E+03   0.2837199771E+01   0.2837199771E+01   0.2780891856E+00   0.2780891856E+00  -0.1036171899E-10   0.2745285578E-01   0.2407650634E-01   0.2905835972E-01
   0.0000000000E+00   0.9930669746E+00   0.9930669746E+00   0.0000000000E+00  -0.9412572190E-07  -0.9412572190E-07   0.0000000000E+00  -0.6932931318E-02  -0.6932931318E-02   0.3403511043E+03  -0.7238964070E+01  -0.7238964070E+01   0.2881403887E+00   0.2881403887E+00   0.1332256088E-10   0.2766799801E-01   0.2426087037E-01   0.2919236406E-01
   0.2059000000E+01   0.6709045758E-02   0.6709045758E-02   0.1000000000E-05   0.2524955879E-06   0.2524955879E-06   0.5899900000E-01   0.6708793262E-02   0.6708793262E-02   0.3605210684E+03   0.1291384131E+02   0.1291384131E+02  -0.2680102137E+00  -0.2680102137E+00   0.3110358951E-10   0.2730568349E-01   0.2394968404E-01   0.2898196634E-01
   0.2059000000E+01   0.9932909542E+00   0.6709045758E-02   0.1000000000E-05  -0.2524955879E-06   0.2524955879E-06   0.5899900000E-01  -0.6708793262E-02   0.6708793262E-02   0.3605210684E+03   0.1291384131E+02   0.1291384131E+02   0.2680102137E+00  -0.2680102137E+00   0.4714500850E-13   0.2730568349E-01   0.2394968404E-01   0.2898196633E-01
   0.2059000000E+01   0.6709045758E-02   0.9932909542E+00   0.1000000000E-05   0.2524955879E-06  -0.2524955879E-06   0.5899900000E-01   0.6708793262E-02  -0.6708793262E-02   0.3605210684E+03   0.1291384131E+02   0.1291384131E+02  -0.2680102137E+00   0.2680102137E+00  -0.2380032125E-13   0.2730568349E-01   0.2394968404E-01   0.2898196633E-01
   0.2059000000E+01   0.9932909542E+00   0.9932909542E+00   0.1000000000E-05  -0.2524955879E-06  -0.2524955879E-06   0.5899900000E-01  -0.6708793262E-02  -0.6708793262E-02   0.3605210683E+03   0.1291384131E+02   0.1291384131E+02   0.2680102137E+00   0.2680102137E+00  -0.3108024482E-10   0.2730568349E-01   0.2394968404E-01   0.2898196633E-01
     1     2     3     4     5     6     7     8
     2     9    10     3     6    11    12     7
 VARIABLES = X,Y,Z,DU1,DU2,DU3,U1,U2,U3,S11,S22,S33,S12,S13,S23,OMEGA,EP,E11
 ZONE, T="0.6000D+00" F=FEPOINT, I=   12 J=    2 ET=BRICK
   0.0000000000E+00   0.6982594868E-02   0.6982594868E-02   0.0000000000E+00   0.5429470032E-07   0.5429470032E-07   0.0000000000E+00   0.6982540573E-02   0.6982540573E-02   0.3534990124E+03   0.5643382416E+01   0.5643382416E+01   0.5664903426E+00   0.5664903426E+00   0.9297408107E-11   0.2824844612E-01   0.2476874652E-01   0.2976788766E-01
   0.1030198893E+01   0.6909202955E-02   0.6909202955E-02   0.5623137658E-06   0.9750959689E-07   0.9750959689E-07   0.3019833049E-01   0.6909105446E-02   0.6909105446E-02   0.3415557790E+03  -0.6387993208E+01  -0.6387993208E+01   0.5802054235E+00   0.5802054235E+00  -0.2058174644E-10   0.2805446635E-01   0.2460189293E-01   0.2954376132E-01
   0.1030198893E+01   0.9930907970E+00   0.6909202955E-02   0.5623137658E-06  -0.9750959689E-07   0.9750959689E-07   0.3019833049E-01  -0.6909105445E-02   0.6909105446E-02   0.3415557790E+03  -0.6387993208E+01  -0.6387993208E+01  -0.5802054235E+00   0.5802054235E+00   0.1748975244E-13   0.2805446635E-01   0.2460189293E-01   0.2954376132E-01
   0.0000000000E+00   0.9930174051E+00   0.6982594868E-02   0.0000000000E+00  -0.5429470031E-07   0.5429470032E-07   0.0000000000E+00  -0.6982540573E-02   0.6982540573E-02   0.3534990124E+03   0.5643382415E+01   0.5643382415E+01  -0.5664903425E+00   0.5664903425E+00   0.1287737068E-13   0.2824844612E-01   0.2476874652E-01   0.2976788766E-01
   0.0000000000E+00   0.6982594868E-02   0.9930174051E+00   0.0000000000E+00   0.5429470032E-07  -0.5429470031E-07   0.0000000000E+00   0.6982540573E-02  -0.6982540573E-02   0.3534990124E+03   0.5643382415E+01   0.5643382415E+01   0.5664903425E+00  -0.5664903425E+00   0.2184938035E-13   0.2824844612E-01   0.2476874652E-01   0.2976788766E-01
   0.1030198893E+01   0.6909202955E-02   0.9930907970E+00   0.5623137658E-06   0.9750959689E-07  -0.9750959689E-07   0.3019833049E-01   0.6909105446E-02  -0.6909105445E-02   0.3415557790E+03  -0.6387993208E+01  -0.6387993208E+01   0.5802054235E+00  -0.5802054235E+00   0.1007411443E-13   0.2805446635E-01   0.2460189293E-01   0.2954376132E-01
   0.1030198893E+01   0.9930907970E+00   0.9930907970E+00   0.5623137658E-06  -0.9750959689E-07  -0.9750959689E-07   0.3019833049E-01  -0.6909105445E-02  -0.6909105445E-02   0.3415557790E+03  -0.6387993207E+01  -0.6387993207E+01  -0.5802054235E+00  -0.5802054235E+00   0.2060931031E-10   0.2805446634E-01   0.2460189293E-01   0.2954376132E-01
   0.0000000000E+00   0.9930174051E+00   0.9930174051E+00   0.0000000000E+00  -0.5429470032E-07  -0.5429470032E-07   0.0000000000E+00  -0.6982540573E-02  -0.6982540573E-02   0.3534990124E+03   0.5643382415E+01   0.5643382415E+01  -0.5664903425E+00  -0.5664903425E+00  -0.9262681356E-11   0.2824844612E-01   0.2476874652E-01   0.2976788766E-01
   0.2060000000E+01   0.6964835739E-02   0.6964835739E-02   0.1000000000E-05   0.1412608848E-06   0.1412608848E-06   0.5999900000E-01   0.6964694478E-02   0.6964694478E-02   0.3295854396E+03  -0.1836673164E+02  -0.1836673164E+02   0.5935828641E+00   0.5935828641E+00  -0.4499486444E-10   0.2793144808E-01   0.2449511333E-01   0.2937778643E-01
   0.2060000000E+01   0.9930351643E+00   0.6964835739E-02   0.1000000000E-05  -0.1412608848E-06   0.1412608848E-06   0.5999900000E-01  -0.6964694478E-02   0.6964694478E-02   0.3295854396E+03  -0.1836673164E+02  -0.1836673164E+02  -0.5935828641E+00   0.5935828641E+00   0.4466031882E-13   0.2793144808E-01   0.2449511333E-01   0.2937778642E-01
   0.2060000000E+01   0.6964835739E-02   0.9930351643E+00   0.1000000000E-05   0.1412608848E-06  -0.1412608848E-06   0.5999900000E-01   0.6964694478E-02  -0.6964694478E-02   0.3295854396E+03  -0.1836673164E+02  -0.1836673164E+02   0.5935828641E+00  -0.5935828641E+00  -0.2954075113E-13   0.2793144808E-01   0.2449511333E-01   0.2937778642E-01
   0.2060000000E+01   0.9930351643E+00   0.9930351643E+00   0.1000000000E-05  -0.1412608848E-06  -0.1412608848E-06   0.5999900000E-01  -0.6964694478E-02  -0.6964694478E-02   0.3295854396E+03  -0.1836673164E+02  -0.1836673164E+02  -0.5935828640E+00  -0.5935828640E+00   0.4500998401E-10   0.2793144808E-01   0.2449511333E-01   0.2937778642E-01
     1     2     3     4     5     6     7     8
     2     9    10     3     6    11    12     7
 VARIABLES = X,Y,Z,DU1,DU2,DU3,U1,U2,U3,S11,S22,S33,S12,S13,S23,OMEGA,EP,E11
 ZONE, T="0.6100D+00" F=FEPOINT, I=   12 J=    2 ET=BRICK
   0.0000000000E+00   0.7129886790E-02   0.7129886790E-02   0.0000000000E+00   0.2369988062E-06   0.2369988062E-06   0.0000000000E+00   0.7129649791E-02   0.7129649791E-02   0.3532185882E+03   0.5076907903E+01   0.5076907903E+01  -0.9444399987E-01  -0.9444399987E-01   0.1963488007E-11   0.2876278697E-01   0.2522548083E-01   0.3022567054E-01
   0.1030653418E+01   0.6983076259E-02   0.6983076259E-02   0.3934129410E-06   0.9782150840E-07   0.9782150840E-07   0.3065302415E-01   0.6982978437E-02   0.6982978437E-02   0.3543240135E+03   0.6326056267E+01   0.6326056267E+01  -0.8072913673E-01  -0.8072913673E-01   0.1104893798E-10   0.2853535954E-01   0.2502379302E-01   0.3002910604E-01
   0.1030653418E+01   0.9930169237E+00   0.6983076259E-02   0.3934129410E-06  -0.9782150839E-07   0.9782150840E-07   0.3065302415E-01  -0.6982978437E-02   0.6982978437E-02   0.3543240135E+03   0.6326056267E+01   0.6326056267E+01   0.8072913660E-01  -0.8072913672E-01   0.1400447302E-14   0.2853535954E-01   0.2502379302E-01   0.3002910603E-01
   0.0000000000E+00   0.9928701132E+00   0.7129886790E-02   0.0000000000E+00  -0.2369988062E-06   0.2369988062E-06   0.0000000000E+00  -0.7129649791E-02   0.7129649791E-02   0.3532185882E+03   0.5076907903E+01   0.5076907903E+01   0.9444399976E-01  -0.9444399987E-01   0.1158889346E-13   0.2876278697E-01   0.2522548082E-01   0.3022567053E-01
   0.0000000000E+00   0.7129886790E-02   0.9928701132E+00   0.0000000000E+00   0.2369988062E-06  -0.2369988062E-06   0.0000000000E+00   0.7129649791E-02  -0.7129649791E-02   0.3532185882E+03   0.5076907903E+01   0.5076907903E+01  -0.9444399987E-01   0.9444399976E-01   0.2881991024E-13   0.2876278697E-01   0.2522548082E-01   0.3022567053E-01
   0.1030653418E+01   0.6983076259E-02   0.9930169237E+00   0.3934129410E-06   0.9782150840E-07  -0.9782150839E-07   0.3065302415E-01   0.6982978437E-02  -0.6982978437E-02   0.3543240135E+03   0.6326056267E+01   0.6326056267E+01  -0.8072913672E-01   0.8072913660E-01   0.3530372271E-14   0.2853535954E-01   0.2502379302E-01   0.3002910603E-01
   0.1030653418E+01   0.9930169237E+00   0.9930169237E+00   0.3934129410E-06  -0.9782150839E-07  -0.9782150839E-07   0.3065302415E-01  -0.6982978437E-02  -0.6982978437E-02   0.3543240135E+03   0.6326056267E+01   0.6326056267E+01   0.8072913659E-01   0.8072913659E-01  -0.1104400716E-10   0.2853535954E-01   0.2502379302E-01   0.3002910603E-01
   0.0000000000E+00   0.9928701132E+00   0.9928701132E+00   0.0000000000E+00  -0.2369988062E-06  -0.2369988062E-06   0.0000000000E+00  -0.7129649791E-02  -0.7129649791E-02   0.3532185882E+03   0.5076907903E+01   0.5076907903E+01   0.9444399976E-01   0.9444399976E-01  -0.1923079203E-11   0.2876278697E-01   0.2522548082E-01   0.3022567053E-01
   0.2061000000E+01   0.6965111419E-02   0.6965111419E-02   0.1000000000E-05  -0.4224040447E-07  -0.4224040447E-07   0.6099900000E-01   0.6965153659E-02   0.6965153659E-02   0.3555981706E+03   0.7531580738E+01   0.7531580738E+01  -0.6705928989E-01  -0.6705928989E-01   0.3169446784E-10   0.2837403923E-01   0.2487841330E-01   0.2989062775E-01
   0.2061000000E+01   0.9930348886E+00   0.6965111419E-02   0.1000000000E-05   0.4224040446E-07  -0.4224040446E-07   0.6099900000E-01  -0.6965153659E-02   0.6965153659E-02   0.3555981706E+03   0.7531580738E+01   0.7531580738E+01   0.6705928980E-01  -0.6705928989E-01   0.3521067594E-14   0.2837403923E-01   0.2487841330E-01   0.2989062775E-01
   0.2061000000E+01   0.6965111419E-02   0.9930348886E+00   0.1000000000E-05  -0.4224040446E-07   0.4224040446E-07   0.6099900000E-01   0.6965153659E-02  -0.6965153659E-02   0.3555981706E+03   0.7531580738E+01   0.7531580738E+01  -0.6705928989E-01   0.6705928980E-01  -0.5416881313E-13   0.2837403923E-01   0.2487841330E-01   0.2989062775E-01
   0.2061000000E+01   0.9930348886E+00   0.9930348886E+00   0.1000000000E-05   0.4224040446E-07   0.4224040446E-07   0.6099900000E-01  -0.6965153659E-02  -0.6965153659E-02   0.3555981706E+03   0.7531580737E+01   0.7531580737E+01   0.6705928979E-01   0.6705928979E-01  -0.3174511559E-10   0.2837403923E-01   0.2487841330E-01   0.2989062775E-01
     1     2     3     4     5     6     7     8
     2     9    10     3     6    11    12     7
 VARIABLES = X,Y,Z,DU1,DU2,DU3,U1,U2,U3,S11,S22,S33,S12,S13,S23,OMEGA,EP,E11
 ZONE, T="0.6200D+00" F=FEPOINT, I=   12 J=    2 ET=BRICK
   0.0000000000E+00   0.7336142487E-02   0.7336142487E-02   0.0000000000E+00   0.1053255056E-06   0.1053255056E-06   0.0000000000E+00   0.7336037162E-02   0.7336037162E-02   0.3348098401E+03  -0.1355290364E+02  -0.1355290364E+02  -0.4955599542E+00  -0.4955599542E+00  -0.4511444229E-10   0.2940441315E-01   0.2578374221E-01   0.3069507376E-01
   0.1031124960E+01   0.7135625460E-02   0.7135625460E-02   0.5826476102E-06   0.1728184294E-06   0.1728184294E-06   0.3112437766E-01   0.7135452641E-02   0.7135452641E-02   0.3454321839E+03  -0.2808487496E+01  -0.2808487496E+01  -0.4913518125E+00  -0.4913518125E+00  -0.1614106021E-10   0.2913320083E-01   0.2555060001E-01   0.3051435016E-01
   0.1031124960E+01   0.9928643745E+00   0.7135625460E-02   0.5826476102E-06  -0.1728184294E-06   0.1728184294E-06   0.3112437766E-01  -0.7135452641E-02   0.7135452641E-02   0.3454321839E+03  -0.2808487496E+01  -0.2808487496E+01   0.4913518124E+00  -0.4913518125E+00  -0.1397624269E-13   0.2913320083E-01   0.2555060001E-01   0.3051435016E-01
   0.0000000000E+00   0.9926638575E+00   0.7336142487E-02   0.0000000000E+00  -0.1053255056E-06   0.1053255056E-06   0.0000000000E+00  -0.7336037162E-02   0.7336037162E-02   0.3348098401E+03  -0.1355290364E+02  -0.1355290364E+02   0.4955599541E+00  -0.4955599542E+00  -0.6616765628E-14   0.2940441315E-01   0.2578374221E-01   0.3069507376E-01
   0.0000000000E+00   0.7336142487E-02   0.9926638575E+00   0.0000000000E+00   0.1053255056E-06  -0.1053255056E-06   0.0000000000E+00   0.7336037162E-02  -0.7336037162E-02   0.3348098401E+03  -0.1355290364E+02  -0.1355290364E+02  -0.4955599542E+00   0.4955599541E+00   0.1162577004E-13   0.2940441315E-01   0.2578374221E-01   0.3069507376E-01
   0.1031124960E+01   0.7135625460E-02   0.9928643745E+00   0.5826476102E-06   0.1728184294E-06  -0.1728184294E-06   0.3112437766E-01   0.7135452641E-02  -0.7135452641E-02   0.3454321839E+03  -0.2808487496E+01  -0.2808487496E+01  -0.4913518125E+00   0.4913518124E+00  -0.2387859569E-14   0.2913320083E-01   0.2555060001E-01   0.3051435016E-01
   0.1031124960E+01   0.9928643745E+00   0.9928643745E+00   0.5826476102E-06  -0.1728184293E-06  -0.1728184293E-06   0.3112437766E-01  -0.7135452641E-02  -0.7135452641E-02   0.3454321839E+03  -0.2808487495E+01  -0.2808487495E+01   0.4913518123E+00   0.4913518123E+00   0.1612469611E-10   0.2913320082E-01   0.2555060001E-01   0.3051435016E-01
   0.0000000000E+00   0.9926638575E+00   0.9926638575E+00   0.0000000000E+00  -0.1053255056E-06  -0.1053255056E-06   0.0000000000E+00  -0.7336037162E-02  -0.7336037162E-02   0.3348098401E+03  -0.1355290364E+02  -0.1355290364E+02   0.4955599541E+00   0.4955599541E+00   0.4511945129E-10   0.2940441315E-01   0.2578374221E-01   0.3069507376E-01
   0.2062000000E+01   0.7062525476E-02   0.7062525476E-02   0.1000000000E-05   0.2384737779E-06   0.2384737779E-06   0.6199900000E-01   0.7062287002E-02   0.7062287002E-02   0.3561731207E+03   0.7915622925E+01   0.7915622925E+01  -0.4872928003E+00  -0.4872928003E+00   0.2658913498E-10   0.2892890038E-01   0.2537407357E-01   0.3039109789E-01
   0.2062000000E+01   0.9929374745E+00   0.7062525476E-02   0.1000000000E-05  -0.2384737779E-06   0.2384737779E-06   0.6199900000E-01  -0.7062287002E-02   0.7062287002E-02   0.3561731207E+03   0.7915622925E+01   0.7915622925E+01   0.4872928002E+00  -0.4872928003E+00  -0.1917612386E-13   0.2892890038E-01   0.2537407357E-01   0.3039109789E-01
   0.2062000000E+01   0.7062525476E-02   0.9929374745E+00   0.1000000000E-05   0.2384737779E-06  -0.2384737779E-06   0.6199900000E-01   0.7062287002E-02  -0.7062287002E-02   0.3561731207E+03   0.7915622925E+01   0.7915622925E+01  -0.4872928003E+00   0.4872928002E+00  -0.4947537337E-13   0.2892890038E-01   0.2537407357E-01   0.3039109789E-01
   0.2062000000E+01   0.9929374745E+00   0.9929374745E+00   0.1000000000E-05  -0.2384737779E-06  -0.2384737779E-06   0.6199900000E-01  -0.7062287002E-02  -0.7062287002E-02   0.3561731207E+03   0.7915622925E+01   0.7915622925E+01   0.4872928002E+00   0.4872928002E+00  -0.2665778648E-10   0.2892890038E-01   0.2537407356E-01   0.3039109789E-01
     1     2     3     4     5     6     7     8
     2     9    10     3     6    11    12     7
 VARIABLES = X,Y,Z,DU1,DU2,DU3,U1,U2,U3,S11,S22,S33,S12,S13,S23,OMEGA,EP,E11
 ZONE, T="0.6300D+00" F=FEPOINT, I=   12 J=    2 ET=BRICK
   0.0000000000E+00   0.7349239303E-02   0.7349239303E-02   0.0000000000E+00   0.7046433850E-08   0.7046433850E-08   0.0000000000E+00   0.7349232257E-02   0.7349232257E-02   0.3576175788E+03   0.9106958655E+01   0.9106958655E+01   0.4006096791E+00   0.4006096791E+00   0.2314733223E-10   0.2993240995E-01   0.2624350899E-01   0.3126901145E-01
   0.1031741273E+01   0.7253369280E-02   0.7253369280E-02   0.5724695238E-06   0.6484356716E-07   0.6484356716E-07   0.3174070032E-01   0.7253304436E-02   0.7253304436E-02   0.3461626736E+03  -0.2292786574E+01  -0.2292786574E+01   0.3964843137E+00   0.3964843137E+00  -0.9262314005E-11   0.2968365832E-01   0.2603004146E-01   0.3099940337E-01
   0.1031741273E+01   0.9927466307E+00   0.7253369280E-02   0.5724695238E-06  -0.6484356716E-07   0.6484356716E-07   0.3174070032E-01  -0.7253304436E-02   0.7253304436E-02   0.3461626736E+03  -0.2292786574E+01  -0.2292786574E+01  -0.3964843137E+00   0.3964843137E+00  -0.7900734647E-14   0.2968365832E-01   0.2603004146E-01   0.3099940337E-01
   0.0000000000E+00   0.9926507607E+00   0.7349239303E-02   0.0000000000E+00  -0.7046433851E-08   0.7046433855E-08   0.0000000000E+00  -0.7349232257E-02   0.7349232257E-02   0.3576175788E+03   0.9106958654E+01   0.9106958654E+01  -0.4006096791E+00   0.4006096791E+00  -0.6791149161E-14   0.2993240995E-01   0.2624350899E-01   0.3126901145E-01
   0.0000000000E+00   0.7349239303E-02   0.9926507607E+00   0.0000000000E+00   0.7046433855E-08  -0.7046433851E-08   0.0000000000E+00   0.7349232257E-02  -0.7349232257E-02   0.3576175788E+03   0.9106958654E+01   0.9106958654E+01   0.4006096791E+00  -0.4006096791E+00   0.1130122137E-13   0.2993240995E-01   0.2624350899E-01   0.3126901145E-01
   0.1031741273E+01   0.7253369280E-02   0.9927466307E+00   0.5724695238E-06   0.6484356716E-07  -0.6484356716E-07   0.3174070032E-01   0.7253304436E-02  -0.7253304436E-02   0.3461626736E+03  -0.2292786574E+01  -0.2292786574E+01   0.3964843137E+00  -0.3964843137E+00   0.1267851510E-13   0.2968365832E-01   0.2603004146E-01   0.3099940337E-01
   0.1031741273E+01   0.9927466307E+00   0.9927466307E+00   0.5724695238E-06  -0.6484356716E-07  -0.6484356716E-07   0.3174070032E-01  -0.7253304436E-02  -0.7253304436E-02   0.3461626736E+03  -0.2292786573E+01  -0.2292786573E+01  -0.3964843137E+00  -0.3964843137E+00   0.9267091784E-11   0.2968365832E-01   0.2603004146E-01   0.3099940337E-01
   0.0000000000E+00   0.9926507607E+00   0.9926507607E+00   0.0000000000E+00  -0.7046433857E-08  -0.7046433857E-08   0.0000000000E+00  -0.7349232257E-02  -0.7349232257E-02   0.3576175787E+03   0.9106958654E+01   0.9106958654E+01  -0.4006096790E+00  -0.4006096790E+00  -0.2314282216E-10   0.2993240995E-01   0.2624350899E-01   0.3126901145E-01
   0.2063000000E+01   0.7282894484E-02   0.7282894484E-02   0.1000000000E-05   0.1205411986E-06   0.1205411986E-06   0.6299900000E-01   0.7282773943E-02   0.7282773943E-02   0.3347638193E+03  -0.1368218410E+02  -0.1368218410E+02   0.3924259418E+00   0.3924259418E+00  -0.3040896813E-10   0.2950206431E-01   0.2587344349E-01   0.3078635243E-01
   0.2063000000E+01   0.9927171055E+00   0.7282894484E-02   0.1000000000E-05  -0.1205411986E-06   0.1205411986E-06   0.6299900000E-01  -0.7282773943E-02   0.7282773943E-02   0.3347638193E+03  -0.1368218410E+02  -0.1368218410E+02  -0.3924259418E+00   0.3924259418E+00  -0.1867557630E-15   0.2950206431E-01   0.2587344349E-01   0.3078635243E-01
   0.2063000000E+01   0.7282894484E-02   0.9927171055E+00   0.1000000000E-05   0.1205411986E-06  -0.1205411986E-06   0.6299900000E-01   0.7282773943E-02  -0.7282773943E-02   0.3347638193E+03  -0.1368218410E+02  -0.1368218410E+02   0.3924259418E+00  -0.3924259418E+00  -0.6934539521E-14   0.2950206431E-01   0.2587344349E-01   0.3078635243E-01
   0.2063000000E+01   0.9927171055E+00   0.9927171055E+00   0.1000000000E-05  -0.1205411986E-06  -0.1205411986E-06   0.6299900000E-01  -0.7282773943E-02  -0.7282773943E-02   0.3347638193E+03  -0.1368218410E+02  -0.1368218410E+02  -0.3924259417E+00  -0.3924259417E+00   0.3040184683E-10   0.2950206431E-01   0.2587344349E-01   0.3078635243E-01
     1     2     3     4     5     6     7     8
     2     9    10     3     6    11    12     7
 VARIABLES = X,Y,Z,DU1,DU2,DU3,U1,U2,U3,S11,S22,S33,S12,S13,S23,OMEGA,EP,E11
 ZONE, T="0.6400D+00" F=FEPOINT, I=   12 J=    2 ET=BRICK
   0.0000000000E+00   0.7500053805E-02   0.7500053805E-02   0.0000000000E+00   0.2828231998E-06   0.2828231998E-06   0.0000000000E+00   0.7499770982E-02   0.7499770982E-02   0.3549831815E+03   0.6339683264E+01   0.6339683264E+01  -0.1438625924E+00  -0.1438625924E+00   0.2098911881E-10   0.3046262303E-01   0.2671698923E-01   0.3173053930E-01
   0.1032203200E+01   0.7343134227E-02   0.7343134227E-02   0.3907080954E-06   0.1458316478E-06   0.1458316478E-06   0.3220280903E-01   0.7342988396E-02   0.7342988396E-02   0.3546274156E+03   0.6070847057E+01   0.6070847057E+01  -0.1544304204E+00  -0.1544304204E+00   0.1753719753E-10   0.3018475340E-01   0.2647221408E-01   0.3148424664E-01
   0.1032203200E+01   0.9926568658E+00   0.7343134227E-02   0.3907080954E-06  -0.1458316478E-06   0.1458316478E-06   0.3220280903E-01  -0.7342988395E-02   0.7342988396E-02   0.3546274156E+03   0.6070847057E+01   0.6070847057E+01   0.1544304205E+00  -0.1544304204E+00   0.3088793673E-14   0.3018475340E-01   0.2647221408E-01   0.3148424664E-01
   0.0000000000E+00   0.9924999462E+00   0.7500053805E-02   0.0000000000E+00  -0.2828231998E-06   0.2828231998E-06   0.0000000000E+00  -0.7499770982E-02   0.7499770982E-02   0.3549831815E+03   0.6339683264E+01   0.6339683264E+01   0.1438625924E+00  -0.1438625924E+00   0.1659761004E-14   0.3046262302E-01   0.2671698922E-01   0.3173053930E-01
   0.0000000000E+00   0.7500053805E-02   0.9924999462E+00   0.0000000000E+00   0.2828231998E-06  -0.2828231998E-06   0.0000000000E+00   0.7499770982E-02  -0.7499770982E-02   0.3549831815E+03   0.6339683264E+01   0.6339683264E+01  -0.1438625924E+00   0.1438625924E+00   0.1602544032E-13   0.3046262302E-01   0.2671698922E-01   0.3173053930E-01
   0.1032203200E+01   0.7343134227E-02   0.9926568658E+00   0.3907080954E-06   0.1458316478E-06  -0.1458316478E-06   0.3220280903E-01   0.7342988396E-02  -0.7342988395E-02   0.3546274156E+03   0.6070847057E+01   0.6070847057E+01  -0.1544304204E+00   0.1544304205E+00   0.2116535892E-13   0.3018475340E-01   0.2647221408E-01   0.3148424664E-01
   0.1032203200E+01   0.9926568658E+00   0.9926568658E+00   0.3907080954E-06  -0.1458316478E-06  -0.1458316478E-06   0.3220280903E-01  -0.7342988395E-02  -0.7342988395E-02   0.3546274156E+03   0.6070847056E+01   0.6070847056E+01   0.1544304205E+00   0.1544304205E+00  -0.1751294338E-10   0.3018475340E-01   0.2647221408E-01   0.3148424664E-01
   0.0000000000E+00   0.9924999462E+00   0.9924999462E+00   0.0000000000E+00  -0.2828231998E-06  -0.2828231998E-06   0.0000000000E+00  -0.7499770982E-02  -0.7499770982E-02   0.3549831815E+03   0.6339683263E+01   0.6339683263E+01   0.1438625924E+00   0.1438625924E+00  -0.2097143360E-10   0.3046262302E-01   0.2671698922E-01   0.3173053930E-01
   0.2064000000E+01   0.7309622490E-02   0.7309622490E-02   0.1000000000E-05   0.7047358173E-08   0.7047358173E-08   0.6399900000E-01   0.7309615443E-02   0.7309615443E-02   0.3543888450E+03   0.5782870554E+01   0.5782870554E+01  -0.1651170336E+00  -0.1651170336E+00   0.1946242699E-10   0.2997126282E-01   0.2628226989E-01   0.3129363199E-01
   0.2064000000E+01   0.9926903775E+00   0.7309622490E-02   0.1000000000E-05  -0.7047358172E-08   0.7047358177E-08   0.6399900000E-01  -0.7309615442E-02   0.7309615443E-02   0.3543888450E+03   0.5782870554E+01   0.5782870554E+01   0.1651170337E+00  -0.1651170336E+00   0.2423916998E-13   0.2997126281E-01   0.2628226989E-01   0.3129363199E-01
   0.2064000000E+01   0.7309622490E-02   0.9926903775E+00   0.1000000000E-05   0.7047358177E-08  -0.7047358172E-08   0.6399900000E-01   0.7309615443E-02  -0.7309615442E-02   0.3543888450E+03   0.5782870554E+01   0.5782870554E+01  -0.1651170336E+00   0.1651170337E+00   0.2285996082E-13   0.2997126281E-01   0.2628226989E-01   0.3129363199E-01
   0.2064000000E+01   0.9926903775E+00   0.9926903775E+00   0.1000000000E-05  -0.7047358176E-08  -0.7047358176E-08   0.6399900000E-01  -0.7309615442E-02  -0.7309615442E-02   0.3543888450E+03   0.5782870553E+01   0.5782870553E+01   0.1651170337E+00   0.1651170337E+00  -0.1941532786E-10   0.2997126281E-01   0.2628226989E-01   0.3129363199E-01
     1     2     3     4     5     6     7     8
     2     9    10     3     6    11    12     7
 VARIABLES = X,Y,Z,DU1,DU2,DU3,U1,U2,U3,S11,S22,S33,S12,S13,S23,OMEGA,EP,E11
 ZONE, T="0.6500D+00" F=FEPOINT, I=   12 J=    2 ET=BRICK
   0.0000000000E+00   0.7726655835E-02   0.7726655835E-02   0.0000000000E+00   0.7967381603E-07   0.7967381603E-07   0.0000000000E+00   0.7726576161E-02   0.7726576161E-02   0.3310943187E+03  -0.1777480730E+02  -0.1777480730E+02  -0.6059403835E+00  -0.6059403835E+00  -0.3724443399E-10   0.3112502398E-01   0.2729061016E-01   0.3218830105E-01
   0.1032661454E+01   0.7507653855E-02   0.7507653855E-02   0.5658987467E-06   0.1359858341E-06   0.1359858341E-06   0.3266088788E-01   0.7507517869E-02   0.7507517869E-02   0.3422801426E+03  -0.6490916513E+01  -0.6490916513E+01  -0.6233189171E+00  -0.6233189171E+00  -0.1461671606E-10   0.3080471448E-01   0.2701561532E-01   0.3196878434E-01
   0.1032661454E+01   0.9924923461E+00   0.7507653855E-02   0.5658987467E-06  -0.1359858341E-06   0.1359858341E-06   0.3266088788E-01  -0.7507517869E-02   0.7507517869E-02   0.3422801426E+03  -0.6490916513E+01  -0.6490916513E+01   0.6233189172E+00  -0.6233189171E+00   0.1144602996E-13   0.3080471448E-01   0.2701561532E-01   0.3196878434E-01
   0.0000000000E+00   0.9922733442E+00   0.7726655835E-02   0.0000000000E+00  -0.7967381603E-07   0.7967381603E-07   0.0000000000E+00  -0.7726576161E-02   0.7726576161E-02   0.3310943187E+03  -0.1777480730E+02  -0.1777480730E+02   0.6059403835E+00  -0.6059403834E+00   0.6188561985E-14   0.3112502398E-01   0.2729061016E-01   0.3218830105E-01
   0.0000000000E+00   0.7726655835E-02   0.9922733442E+00   0.0000000000E+00   0.7967381603E-07  -0.7967381603E-07   0.0000000000E+00   0.7726576161E-02  -0.7726576161E-02   0.3310943187E+03  -0.1777480730E+02  -0.1777480730E+02  -0.6059403834E+00   0.6059403835E+00   0.1194848402E-13   0.3112502398E-01   0.2729061016E-01   0.3218830105E-01
   0.1032661454E+01   0.7507653855E-02   0.9924923461E+00   0.5658987467E-06   0.1359858341E-06  -0.1359858341E-06   0.3266088788E-01   0.7507517869E-02  -0.7507517869E-02   0.3422801426E+03  -0.6490916513E+01  -0.6490916513E+01  -0.6233189171E+00   0.6233189172E+00   0.1192524000E-13   0.3080471448E-01   0.2701561532E-01   0.3196878434E-01
   0.1032661454E+01   0.9924923461E+00   0.9924923461E+00   0.5658987467E-06  -0.1359858341E-06  -0.1359858341E-06   0.3266088788E-01  -0.7507517869E-02  -0.7507517869E-02   0.3422801426E+03  -0.6490916512E+01  -0.6490916512E+01   0.6233189171E+00   0.6233189171E+00   0.1464008733E-10   0.3080471448E-01   0.2701561532E-01   0.3196878434E-01
   0.0000000000E+00   0.9922733442E+00   0.9922733442E+00   0.0000000000E+00  -0.7967381603E-07  -0.7967381603E-07   0.0000000000E+00  -0.7726576161E-02  -0.7726576161E-02   0.3310943187E+03  -0.1777480730E+02  -0.1777480730E+02   0.6059403834E+00   0.6059403834E+00   0.3726257103E-10   0.3112502398E-01   0.2729061016E-01   0.3218830105E-01
   0.2065000000E+01   0.7410676585E-02   0.7410676585E-02   0.1000000000E-05   0.1914190483E-06   0.1914190483E-06   0.6499900000E-01   0.7410485166E-02   0.7410485166E-02   0.3535610302E+03   0.4783128547E+01   0.4783128547E+01  -0.6411701336E+00  -0.6411701336E+00   0.6515904427E-11   0.3054900852E-01   0.2679525057E-01   0.3180435426E-01
   0.2065000000E+01   0.9925893234E+00   0.7410676585E-02   0.1000000000E-05  -0.1914190483E-06   0.1914190483E-06   0.6499900000E-01  -0.7410485166E-02   0.7410485166E-02   0.3535610302E+03   0.4783128547E+01   0.4783128547E+01   0.6411701336E+00  -0.6411701336E+00   0.2643925561E-13   0.3054900852E-01   0.2679525057E-01   0.3180435426E-01
   0.2065000000E+01   0.7410676585E-02   0.9925893234E+00   0.1000000000E-05   0.1914190483E-06  -0.1914190483E-06   0.6499900000E-01   0.7410485166E-02  -0.7410485166E-02   0.3535610302E+03   0.4783128547E+01   0.4783128547E+01  -0.6411701336E+00   0.6411701336E+00   0.1029140578E-13   0.3054900852E-01   0.2679525057E-01   0.3180435426E-01
   0.2065000000E+01   0.9925893234E+00   0.9925893234E+00   0.1000000000E-05  -0.1914190483E-06  -0.1914190483E-06   0.6499900000E-01  -0.7410485166E-02  -0.7410485166E-02   0.3535610302E+03   0.4783128547E+01   0.4783128547E+01   0.6411701336E+00   0.6411701336E+00  -0.6479173765E-11   0.3054900852E-01   0.2679525057E-01   0.3180435425E-01
     1     2     3     4     5     6     7     8
     2     9    10     3     6    11    12     7
 VARIABLES = X,Y,Z,DU1,DU2,DU3,U1,U2,U3,S11,S22,S33,S12,S13,S23,OMEGA,EP,E11
 ZONE, T="0.6600D+00" F=FEPOINT, I=   12 J=    2 ET=BRICK
   0.0000000000E+00   0.7704976078E-02   0.7704976078E-02   0.0000000000E+00  -0.2574791177E-08  -0.2574791177E-08   0.0000000000E+00   0.7704978653E-02   0.7704978653E-02   0.3629682804E+03   0.1397913909E+02   0.1397913909E+02   0.3046902673E+00   0.3046902673E+00   0.4809925358E-10   0.3159314419E-01   0.2769864093E-01   0.3275494254E-01
   0.1033271350E+01   0.7591337564E-02   0.7591337564E-02   0.5772044654E-06   0.6849312077E-07   0.6849312077E-07   0.3327077247E-01   0.7591269070E-02   0.7591269070E-02   0.3522614251E+03   0.3348269579E+01   0.3348269579E+01   0.2883922188E+00   0.2883922188E+00   0.1491908234E-10   0.3130128647E-01   0.2744923543E-01   0.3245294038E-01
   0.1033271350E+01   0.9924086624E+00   0.7591337564E-02   0.5772044654E-06  -0.6849312077E-07   0.6849312078E-07   0.3327077247E-01  -0.7591269070E-02   0.7591269070E-02   0.3522614251E+03   0.3348269579E+01   0.3348269579E+01  -0.2883922188E+00   0.2883922188E+00   0.1290133788E-13   0.3130128646E-01   0.2744923543E-01   0.3245294038E-01
   0.0000000000E+00   0.9922950239E+00   0.7704976078E-02   0.0000000000E+00   0.2574791178E-08  -0.2574791172E-08   0.0000000000E+00  -0.7704978653E-02   0.7704978653E-02   0.3629682804E+03   0.1397913909E+02   0.1397913909E+02  -0.3046902673E+00   0.3046902673E+00  -0.1727114130E-14   0.3159314419E-01   0.2769864093E-01   0.3275494254E-01
   0.0000000000E+00   0.7704976078E-02   0.9922950239E+00   0.0000000000E+00  -0.2574791172E-08   0.2574791178E-08   0.0000000000E+00   0.7704978653E-02  -0.7704978653E-02   0.3629682804E+03   0.1397913909E+02   0.1397913909E+02   0.3046902673E+00  -0.3046902673E+00  -0.1531938499E-14   0.3159314419E-01   0.2769864093E-01   0.3275494254E-01
   0.1033271350E+01   0.7591337564E-02   0.9924086624E+00   0.5772044654E-06   0.6849312078E-07  -0.6849312077E-07   0.3327077247E-01   0.7591269070E-02  -0.7591269070E-02   0.3522614251E+03   0.3348269579E+01   0.3348269579E+01   0.2883922188E+00  -0.2883922188E+00  -0.5560521742E-14   0.3130128646E-01   0.2744923543E-01   0.3245294038E-01
   0.1033271350E+01   0.9924086624E+00   0.9924086624E+00   0.5772044654E-06  -0.6849312077E-07  -0.6849312077E-07   0.3327077247E-01  -0.7591269070E-02  -0.7591269070E-02   0.3522614251E+03   0.3348269579E+01   0.3348269579E+01  -0.2883922188E+00  -0.2883922188E+00  -0.1491174152E-10   0.3130128646E-01   0.2744923543E-01   0.3245294038E-01
   0.0000000000E+00   0.9922950239E+00   0.9922950239E+00   0.0000000000E+00   0.2574791173E-08   0.2574791173E-08   0.0000000000E+00  -0.7704978653E-02  -0.7704978653E-02   0.3629682804E+03   0.1397913909E+02   0.1397913909E+02  -0.3046902672E+00  -0.3046902672E+00  -0.4810251263E-10   0.3159314419E-01   0.2769864093E-01   0.3275494254E-01
   0.2066000000E+01   0.7599404656E-02   0.7599404656E-02   0.1000000000E-05   0.1397809634E-06   0.1397809634E-06   0.6599900000E-01   0.7599264875E-02   0.7599264875E-02   0.3416625039E+03  -0.7298865233E+01  -0.7298865233E+01   0.2722582705E+00   0.2722582705E+00  -0.2561848618E-10   0.3107347071E-01   0.2725405769E-01   0.3220586936E-01
   0.2066000000E+01   0.9924005953E+00   0.7599404656E-02   0.1000000000E-05  -0.1397809634E-06   0.1397809634E-06   0.6599900000E-01  -0.7599264875E-02   0.7599264875E-02   0.3416625039E+03  -0.7298865233E+01  -0.7298865233E+01  -0.2722582704E+00   0.2722582704E+00   0.1831765546E-13   0.3107347071E-01   0.2725405769E-01   0.3220586936E-01
   0.2066000000E+01   0.7599404656E-02   0.9924005953E+00   0.1000000000E-05   0.1397809634E-06  -0.1397809634E-06   0.6599900000E-01   0.7599264875E-02  -0.7599264875E-02   0.3416625039E+03  -0.7298865233E+01  -0.7298865233E+01   0.2722582704E+00  -0.2722582704E+00  -0.1864695661E-13   0.3107347071E-01   0.2725405769E-01   0.3220586936E-01
   0.2066000000E+01   0.9924005953E+00   0.9924005953E+00   0.1000000000E-05  -0.1397809634E-06  -0.1397809634E-06   0.6599900000E-01  -0.7599264875E-02  -0.7599264875E-02   0.3416625039E+03  -0.7298865232E+01  -0.7298865232E+01  -0.2722582704E+00  -0.2722582704E+00   0.2561815688E-10   0.3107347071E-01   0.2725405769E-01   0.3220586935E-01
     1     2     3     4     5     6     7     8
     2     9    10     3     6    11    12     7
 VARIABLES = X,Y,Z,DU1,DU2,DU3,U1,U2,U3,S11,S22,S33,S12,S13,S23,OMEGA,EP,E11
 ZONE, T="0.6700D+00" F=FEPOINT, I=   12 J=    2 ET=BRICK
   0.0000000000E+00   0.7878408327E-02   0.7878408327E-02   0.0000000000E+00   0.3082495619E-06   0.3082495619E-06   0.0000000000E+00   0.7878100077E-02   0.7878100077E-02   0.3525611978E+03   0.3334959148E+01   0.3334959148E+01  -0.1314295110E+00  -0.1314295110E+00   0.8411545996E-11   0.3216446584E-01   0.2820967779E-01   0.3321672323E-01
   0.1033737121E+01   0.7716225729E-02   0.7716225729E-02   0.3860026984E-06   0.1747370816E-06   0.1747370816E-06   0.3373673546E-01   0.7716050992E-02   0.7716050992E-02   0.3508625114E+03   0.1615089383E+01   0.1615089383E+01  -0.1427401243E+00  -0.1427401243E+00   0.6334583251E-11   0.3185319947E-01   0.2793683983E-01   0.3293678019E-01
   0.1033737121E+01   0.9922837743E+00   0.7716225729E-02   0.3860026984E-06  -0.1747370816E-06   0.1747370816E-06   0.3373673546E-01  -0.7716050992E-02   0.7716050992E-02   0.3508625114E+03   0.1615089383E+01   0.1615089383E+01   0.1427401242E+00  -0.1427401243E+00   0.1184905642E-13   0.3185319947E-01   0.2793683983E-01   0.3293678019E-01
   0.0000000000E+00   0.9921215917E+00   0.7878408327E-02   0.0000000000E+00  -0.3082495619E-06   0.3082495619E-06   0.0000000000E+00  -0.7878100077E-02   0.7878100077E-02   0.3525611978E+03   0.3334959148E+01   0.3334959148E+01   0.1314295109E+00  -0.1314295110E+00  -0.7189398272E-14   0.3216446584E-01   0.2820967779E-01   0.3321672323E-01
   0.0000000000E+00   0.7878408327E-02   0.9921215917E+00   0.0000000000E+00   0.3082495619E-06  -0.3082495619E-06   0.0000000000E+00   0.7878100077E-02  -0.7878100077E-02   0.3525611978E+03   0.3334959148E+01   0.3334959148E+01  -0.1314295110E+00   0.1314295109E+00  -0.1524896032E-13   0.3216446584E-01   0.2820967779E-01   0.3321672323E-01
   0.1033737121E+01   0.7716225729E-02   0.9922837743E+00   0.3860026984E-06   0.1747370816E-06  -0.1747370816E-06   0.3373673546E-01   0.7716050992E-02  -0.7716050992E-02   0.3508625114E+03   0.1615089383E+01   0.1615089383E+01  -0.1427401243E+00   0.1427401242E+00  -0.1727716881E-13   0.3185319947E-01   0.2793683983E-01   0.3293678019E-01
   0.1033737121E+01   0.9922837743E+00   0.9922837743E+00   0.3860026984E-06  -0.1747370816E-06  -0.1747370816E-06   0.3373673546E-01  -0.7716050992E-02  -0.7716050992E-02   0.3508625114E+03   0.1615089383E+01   0.1615089383E+01   0.1427401242E+00   0.1427401242E+00  -0.6340011363E-11   0.3185319947E-01   0.2793683983E-01   0.3293678019E-01
   0.0000000000E+00   0.9921215917E+00   0.9921215917E+00   0.0000000000E+00  -0.3082495619E-06  -0.3082495619E-06   0.0000000000E+00  -0.7878100077E-02  -0.7878100077E-02   0.3525611978E+03   0.3334959148E+01   0.3334959148E+01   0.1314295109E+00   0.1314295109E+00  -0.8433984354E-11   0.3216446583E-01   0.2820967779E-01   0.3321672323E-01
   0.2067000000E+01   0.7676414881E-02   0.7676414881E-02   0.1000000000E-05   0.4227614670E-07   0.4227614670E-07   0.6699900000E-01   0.7676372605E-02   0.7676372605E-02   0.3491394807E+03  -0.5346948198E-01  -0.5346948198E-01  -0.1540976308E+00  -0.1540976308E+00  -0.6387221835E-11   0.3160882568E-01   0.2772108664E-01   0.3271208935E-01
   0.2067000000E+01   0.9923235851E+00   0.7676414881E-02   0.1000000000E-05  -0.4227614670E-07   0.4227614670E-07   0.6699900000E-01  -0.7676372605E-02   0.7676372605E-02   0.3491394807E+03  -0.5346948198E-01  -0.5346948197E-01   0.1540976307E+00  -0.1540976308E+00   0.1305078453E-13   0.3160882568E-01   0.2772108664E-01   0.3271208935E-01
   0.2067000000E+01   0.7676414881E-02   0.9923235851E+00   0.1000000000E-05   0.4227614670E-07  -0.4227614670E-07   0.6699900000E-01   0.7676372605E-02  -0.7676372605E-02   0.3491394807E+03  -0.5346948197E-01  -0.5346948198E-01  -0.1540976308E+00   0.1540976307E+00  -0.2928948074E-13   0.3160882568E-01   0.2772108664E-01   0.3271208935E-01
   0.2067000000E+01   0.9923235851E+00   0.9923235851E+00   0.1000000000E-05  -0.4227614670E-07  -0.4227614670E-07   0.6699900000E-01  -0.7676372605E-02  -0.7676372605E-02   0.3491394807E+03  -0.5346948197E-01  -0.5346948197E-01   0.1540976307E+00   0.1540976307E+00   0.6370983138E-11   0.3160882567E-01   0.2772108664E-01   0.3271208935E-01
     1     2     3     4     5     6     7     8
     2     9    10     3     6    11    12     7
 VARIABLES = X,Y,Z,DU1,DU2,DU3,U1,U2,U3,S11,S22,S33,S12,S13,S23,OMEGA,EP,E11
 ZONE, T="0.6800D+00" F=FEPOINT, I=   12 J=    2 ET=BRICK
   0.0000000000E+00   0.8092843538E-02   0.8092843538E-02   0.0000000000E+00   0.4243253483E-07   0.4243253483E-07   0.0000000000E+00   0.8092801105E-02   0.8092801105E-02   0.3319220769E+03  -0.1743542715E+02  -0.1743542715E+02  -0.6602252160E+00  -0.6602252160E+00  -0.5002227892E-10   0.3279600181E-01   0.2875438281E-01   0.3366067861E-01
   0.1034179998E+01   0.7861053667E-02   0.7861053667E-02   0.5463914576E-06   0.8739011749E-07   0.8739011749E-07   0.3417945184E-01   0.7860966277E-02   0.7860966277E-02   0.3435635122E+03  -0.5688890903E+01  -0.5688890903E+01  -0.6669431660E+00  -0.6669431660E+00  -0.1539126932E-10   0.3244871128E-01   0.2845630648E-01   0.3342031066E-01
   0.1034179998E+01   0.9921389463E+00   0.7861053667E-02   0.5463914576E-06  -0.8739011748E-07   0.8739011749E-07   0.3417945184E-01  -0.7860966277E-02   0.7860966277E-02   0.3435635122E+03  -0.5688890903E+01  -0.5688890903E+01   0.6669431660E+00  -0.6669431660E+00   0.2709841761E-13   0.3244871128E-01   0.2845630648E-01   0.3342031066E-01
   0.0000000000E+00   0.9919071565E+00   0.8092843538E-02   0.0000000000E+00  -0.4243253483E-07   0.4243253483E-07   0.0000000000E+00  -0.8092801105E-02   0.8092801105E-02   0.3319220769E+03  -0.1743542715E+02  -0.1743542715E+02   0.6602252159E+00  -0.6602252159E+00   0.1063718093E-13   0.3279600181E-01   0.2875438281E-01   0.3366067861E-01
   0.0000000000E+00   0.8092843538E-02   0.9919071565E+00   0.0000000000E+00   0.4243253483E-07  -0.4243253483E-07   0.0000000000E+00   0.8092801105E-02  -0.8092801105E-02   0.3319220769E+03  -0.1743542715E+02  -0.1743542715E+02  -0.6602252159E+00   0.6602252159E+00  -0.1025336514E-14   0.3279600181E-01   0.2875438281E-01   0.3366067861E-01
   0.1034179998E+01   0.7861053667E-02   0.9921389463E+00   0.5463914576E-06   0.8739011749E-07  -0.8739011748E-07   0.3417945184E-01   0.7860966277E-02  -0.7860966277E-02   0.3435635122E+03  -0.5688890903E+01  -0.5688890903E+01  -0.6669431660E+00   0.6669431660E+00   0.2903748985E-14   0.3244871128E-01   0.2845630648E-01   0.3342031066E-01
   0.1034179998E+01   0.9921389463E+00   0.9921389463E+00   0.5463914576E-06  -0.8739011749E-07  -0.8739011749E-07   0.3417945184E-01  -0.7860966277E-02  -0.7860966277E-02   0.3435635122E+03  -0.5688890902E+01  -0.5688890902E+01   0.6669431659E+00   0.6669431659E+00   0.1542127149E-10   0.3244871128E-01   0.2845630648E-01   0.3342031066E-01
   0.0000000000E+00   0.9919071565E+00   0.9919071565E+00   0.0000000000E+00  -0.4243253483E-07  -0.4243253483E-07   0.0000000000E+00  -0.8092801105E-02  -0.8092801105E-02   0.3319220769E+03  -0.1743542715E+02  -0.1743542715E+02   0.6602252158E+00   0.6602252158E+00   0.5003189076E-10   0.3279600181E-01   0.2875438281E-01   0.3366067861E-01
   0.2068000000E+01   0.7752990055E-02   0.7752990055E-02   0.1000000000E-05   0.1339432417E-06   0.1339432417E-06   0.6799900000E-01   0.7752856112E-02   0.7752856112E-02   0.3552950598E+03   0.6050637451E+01   0.6050637451E+01  -0.6739902487E+00  -0.6739902487E+00   0.9365837635E-11   0.3216710664E-01   0.2821378022E-01   0.3323583982E-01
   0.2068000000E+01   0.9922470099E+00   0.7752990055E-02   0.1000000000E-05  -0.1339432416E-06   0.1339432417E-06   0.6799900000E-01  -0.7752856112E-02   0.7752856112E-02   0.3552950598E+03   0.6050637451E+01   0.6050637451E+01   0.6739902486E+00  -0.6739902487E+00   0.1904464859E-13   0.3216710664E-01   0.2821378022E-01   0.3323583982E-01
   0.2068000000E+01   0.7752990055E-02   0.9922470099E+00   0.1000000000E-05   0.1339432417E-06  -0.1339432416E-06   0.6799900000E-01   0.7752856112E-02  -0.7752856112E-02   0.3552950598E+03   0.6050637451E+01   0.6050637451E+01  -0.6739902487E+00   0.6739902486E+00  -0.8758133411E-14   0.3216710664E-01   0.2821378022E-01   0.3323583982E-01
   0.2068000000E+01   0.9922470099E+00   0.9922470099E+00   0.1000000000E-05  -0.1339432416E-06  -0.1339432416E-06   0.6799900000E-01  -0.7752856112E-02  -0.7752856112E-02   0.3552950597E+03   0.6050637451E+01   0.6050637451E+01   0.6739902486E+00   0.6739902486E+00  -0.9355551119E-11   0.3216710664E-01   0.2821378022E-01   0.3323583982E-01
     1     2     3     4     5     6     7     8
     2     9    10     3     6    11    12     7
 VARIABLES = X,Y,Z,DU1,DU2,DU3,U1,U2,U3,S11,S22,S33,S12,S13,S23,OMEGA,EP,E11
 ZONE, T="0.6900D+00" F=FEPOINT, I=   12 J=    2 ET=BRICK
   0.0000000000E+00   0.8061354936E-02   0.8061354936E-02   0.0000000000E+00   0.2276363512E-07   0.2276363512E-07   0.0000000000E+00   0.8061332172E-02   0.8061332172E-02   0.3659738456E+03   0.1628789074E+02   0.1628789074E+02   0.2537660873E+00   0.2537660873E+00   0.3740087513E-10   0.3323565919E-01   0.2913971191E-01   0.3421731939E-01
   0.1034780519E+01   0.7935107151E-02   0.7935107151E-02   0.5796597710E-06   0.1071604542E-06   0.1071604542E-06   0.3477993972E-01   0.7934999991E-02   0.7934999991E-02   0.3561863575E+03   0.6588304629E+01   0.6588304629E+01   0.2555505552E+00   0.2555505552E+00   0.1766628570E-10   0.3292414772E-01   0.2887406867E-01   0.3390354593E-01
   0.1034780519E+01   0.9920648928E+00   0.7935107151E-02   0.5796597710E-06  -0.1071604542E-06   0.1071604542E-06   0.3477993972E-01  -0.7934999991E-02   0.7934999991E-02   0.3561863575E+03   0.6588304628E+01   0.6588304628E+01  -0.2555505552E+00   0.2555505552E+00   0.1145049952E-13   0.3292414772E-01   0.2887406867E-01   0.3390354593E-01
   0.0000000000E+00   0.9919386451E+00   0.8061354936E-02   0.0000000000E+00  -0.2276363512E-07   0.2276363512E-07   0.0000000000E+00  -0.8061332172E-02   0.8061332172E-02   0.3659738456E+03   0.1628789074E+02   0.1628789074E+02  -0.2537660872E+00   0.2537660873E+00   0.8985234402E-14   0.3323565919E-01   0.2913971191E-01   0.3421731939E-01
   0.0000000000E+00   0.8061354936E-02   0.9919386451E+00   0.0000000000E+00   0.2276363512E-07  -0.2276363512E-07   0.0000000000E+00   0.8061332172E-02  -0.8061332172E-02   0.3659738456E+03   0.1628789074E+02   0.1628789074E+02   0.2537660873E+00  -0.2537660872E+00   0.6857604427E-14   0.3323565919E-01   0.2913971191E-01   0.3421731939E-01
   0.1034780519E+01   0.7935107151E-02   0.9920648928E+00   0.5796597710E-06   0.1071604542E-06  -0.1071604542E-06   0.3477993972E-01   0.7934999991E-02  -0.7934999991E-02   0.3561863575E+03   0.6588304628E+01   0.6588304628E+01   0.2555505552E+00  -0.2555505552E+00   0.5438206158E-14   0.3292414772E-01   0.2887406867E-01   0.3390354593E-01
   0.1034780519E+01   0.9920648928E+00   0.9920648928E+00   0.5796597710E-06  -0.1071604542E-06  -0.1071604542E-06   0.3477993972E-01  -0.7934999991E-02  -0.7934999991E-02   0.3561863575E+03   0.6588304628E+01   0.6588304628E+01  -0.2555505551E+00  -0.2555505551E+00  -0.1764939700E-10   0.3292414772E-01   0.2887406867E-01   0.3390354593E-01
   0.0000000000E+00   0.9919386451E+00   0.9919386451E+00   0.0000000000E+00  -0.2276363512E-07  -0.2276363512E-07   0.0000000000E+00  -0.8061332172E-02  -0.8061332172E-02   0.3659738455E+03   0.1628789074E+02   0.1628789074E+02  -0.2537660872E+00  -0.2537660872E+00  -0.3738503229E-10   0.3323565919E-01   0.2913971191E-01   0.3421731939E-01
   0.2069000000E+01   0.7934209834E-02   0.7934209834E-02   0.1000000000E-05   0.1930882979E-06   0.1930882979E-06   0.6899900000E-01   0.7934016746E-02   0.7934016746E-02   0.3464097748E+03  -0.3077912548E+01  -0.3077912548E+01   0.2572609175E+00   0.2572609175E+00  -0.8342059042E-11   0.3268066927E-01   0.2866621853E-01   0.3364638881E-01
   0.2069000000E+01   0.9920657902E+00   0.7934209834E-02   0.1000000000E-05  -0.1930882979E-06   0.1930882979E-06   0.6899900000E-01  -0.7934016746E-02   0.7934016746E-02   0.3464097748E+03  -0.3077912548E+01  -0.3077912548E+01  -0.2572609175E+00   0.2572609175E+00   0.3210590814E-14   0.3268066927E-01   0.2866621853E-01   0.3364638881E-01
   0.2069000000E+01   0.7934209834E-02   0.9920657902E+00   0.1000000000E-05   0.1930882979E-06  -0.1930882979E-06   0.6899900000E-01   0.7934016746E-02  -0.7934016746E-02   0.3464097748E+03  -0.3077912548E+01  -0.3077912548E+01   0.2572609175E+00  -0.2572609175E+00   0.1506544075E-14   0.3268066927E-01   0.2866621853E-01   0.3364638881E-01
   0.2069000000E+01   0.9920657902E+00   0.9920657902E+00   0.1000000000E-05  -0.1930882979E-06  -0.1930882979E-06   0.6899900000E-01  -0.7934016746E-02  -0.7934016746E-02   0.3464097748E+03  -0.3077912548E+01  -0.3077912548E+01  -0.2572609175E+00  -0.2572609175E+00   0.8346776176E-11   0.3268066927E-01   0.2866621853E-01   0.3364638881E-01
     1     2     3     4     5     6     7     8
     2     9    10     3     6    11    12     7
 VARIABLES = X,Y,Z,DU1,DU2,DU3,U1,U2,U3,S11,S22,S33,S12,S13,S23,OMEGA,EP,E11
 ZONE, T="0.7000D+00" F=FEPOINT, I=   12 J=    2 ET=BRICK
   0.0000000000E+00   0.8251763092E-02   0.8251763092E-02   0.0000000000E+00   0.2923026692E-06   0.2923026692E-06   0.0000000000E+00   0.8251470789E-02   0.8251470789E-02   0.3488533048E+03  -0.8719697414E+00  -0.8719697414E+00  -0.6533512057E-01  -0.6533512057E-01  -0.1358117233E-10   0.3384692057E-01   0.2968504676E-01   0.3467849039E-01
   0.1035249664E+01   0.8091243396E-02   0.8091243396E-02   0.3823918745E-06   0.1653872859E-06   0.1653872859E-06   0.3524928151E-01   0.8091078008E-02   0.8091078008E-02   0.3457963842E+03  -0.3897372044E+01  -0.3897372044E+01  -0.5843951136E-01  -0.5843951136E-01  -0.1324998694E-10   0.3353005066E-01   0.2940746576E-01   0.3438661485E-01
   0.1035249664E+01   0.9919087566E+00   0.8091243396E-02   0.3823918745E-06  -0.1653872859E-06   0.1653872859E-06   0.3524928151E-01  -0.8091078008E-02   0.8091078008E-02   0.3457963841E+03  -0.3897372044E+01  -0.3897372044E+01   0.5843951143E-01  -0.5843951136E-01  -0.1936294712E-13   0.3353005066E-01   0.2940746576E-01   0.3438661485E-01
   0.0000000000E+00   0.9917482369E+00   0.8251763092E-02   0.0000000000E+00  -0.2923026692E-06   0.2923026692E-06   0.0000000000E+00  -0.8251470789E-02   0.8251470789E-02   0.3488533048E+03  -0.8719697413E+00  -0.8719697413E+00   0.6533512063E-01  -0.6533512057E-01  -0.6153251938E-14   0.3384692057E-01   0.2968504676E-01   0.3467849039E-01
   0.0000000000E+00   0.8251763092E-02   0.9917482369E+00   0.0000000000E+00   0.2923026692E-06  -0.2923026692E-06   0.0000000000E+00   0.8251470789E-02  -0.8251470789E-02   0.3488533048E+03  -0.8719697413E+00  -0.8719697413E+00  -0.6533512057E-01   0.6533512063E-01   0.5274565517E-14   0.3384692057E-01   0.2968504676E-01   0.3467849039E-01
   0.1035249664E+01   0.8091243396E-02   0.9919087566E+00   0.3823918745E-06   0.1653872859E-06  -0.1653872859E-06   0.3524928151E-01   0.8091078008E-02  -0.8091078008E-02   0.3457963841E+03  -0.3897372044E+01  -0.3897372044E+01  -0.5843951136E-01   0.5843951143E-01  -0.6795337781E-14   0.3353005066E-01   0.2940746576E-01   0.3438661485E-01
   0.1035249664E+01   0.9919087566E+00   0.9919087566E+00   0.3823918745E-06  -0.1653872859E-06  -0.1653872859E-06   0.3524928151E-01  -0.8091078008E-02  -0.8091078008E-02   0.3457963841E+03  -0.3897372044E+01  -0.3897372044E+01   0.5843951143E-01   0.5843951143E-01   0.1322382865E-10   0.3353005066E-01   0.2940746576E-01   0.3438661485E-01
   0.0000000000E+00   0.9917482369E+00   0.9917482369E+00   0.0000000000E+00  -0.2923026692E-06  -0.2923026692E-06   0.0000000000E+00  -0.8251470789E-02  -0.8251470789E-02   0.3488533048E+03  -0.8719697413E+00  -0.8719697413E+00   0.6533512063E-01   0.6533512063E-01   0.1358029364E-10   0.3384692057E-01   0.2968504676E-01   0.3467849039E-01
   0.2070000000E+01   0.8057339379E-02   0.8057339379E-02   0.1000000000E-05   0.3941506148E-07   0.3941506148E-07   0.6999900000E-01   0.8057299964E-02   0.8057299964E-02   0.3427924221E+03  -0.6909235135E+01  -0.6909235135E+01  -0.5158684289E-01  -0.5158684289E-01  -0.1370619493E-10   0.3328066172E-01   0.2918749688E-01   0.3415195046E-01
   0.2070000000E+01   0.9919426606E+00   0.8057339379E-02   0.1000000000E-05  -0.3941506148E-07   0.3941506148E-07   0.6999900000E-01  -0.8057299963E-02   0.8057299964E-02   0.3427924221E+03  -0.6909235135E+01  -0.6909235135E+01   0.5158684295E-01  -0.5158684289E-01  -0.2480368156E-13   0.3328066172E-01   0.2918749688E-01   0.3415195046E-01
   0.2070000000E+01   0.8057339379E-02   0.9919426606E+00   0.1000000000E-05   0.3941506148E-07  -0.3941506148E-07   0.6999900000E-01   0.8057299964E-02  -0.8057299963E-02   0.3427924221E+03  -0.6909235135E+01  -0.6909235135E+01  -0.5158684289E-01   0.5158684295E-01  -0.6020141875E-14   0.3328066172E-01   0.2918749688E-01   0.3415195046E-01
   0.2070000000E+01   0.9919426606E+00   0.9919426606E+00   0.1000000000E-05  -0.3941506148E-07  -0.3941506148E-07   0.6999900000E-01  -0.8057299963E-02  -0.8057299963E-02   0.3427924221E+03  -0.6909235135E+01  -0.6909235135E+01   0.5158684295E-01   0.5158684295E-01   0.1367537111E-10   0.3328066172E-01   0.2918749688E-01   0.3415195046E-01
     1     2     3     4     5     6     7     8
     2     9    10     3     6    11    12     7
 VARIABLES = X,Y,Z,DU1,DU2,DU3,U1,U2,U3,S11,S22,S33,S12,S13,S23,OMEGA,EP,E11
 ZONE, T="0.7100D+00" F=FEPOINT, I=   12 J=    2 ET=BRICK
   0.0000000000E+00   0.8434091833E-02   0.8434091833E-02   0.0000000000E+00   0.2656181749E-07   0.2656181749E-07   0.0000000000E+00   0.8434065271E-02   0.8434065271E-02   0.3369364078E+03  -0.1308625330E+02  -0.1308625330E+02  -0.6481945987E+00  -0.6481945987E+00  -0.3564103218E-10   0.3441145998E-01   0.3017194935E-01   0.3510918142E-01
   0.1035678274E+01   0.8199023704E-02   0.8199023704E-02   0.5273008480E-06   0.6144625987E-07   0.6144625987E-07   0.3567774641E-01   0.8198962258E-02   0.8198962258E-02   0.3489865285E+03  -0.1004931001E+01  -0.1004931001E+01  -0.6412980333E+00  -0.6412980333E+00  -0.2176258543E-11   0.3406313411E-01   0.2987186693E-01   0.3486953615E-01
   0.1035678274E+01   0.9918009763E+00   0.8199023704E-02   0.5273008480E-06  -0.6144625987E-07   0.6144625988E-07   0.3567774641E-01  -0.8198962257E-02   0.8198962258E-02   0.3489865285E+03  -0.1004931001E+01  -0.1004931001E+01   0.6412980333E+00  -0.6412980333E+00  -0.3248316612E-13   0.3406313411E-01   0.2987186693E-01   0.3486953615E-01
   0.0000000000E+00   0.9915659082E+00   0.8434091833E-02   0.0000000000E+00  -0.2656181749E-07   0.2656181750E-07   0.0000000000E+00  -0.8434065271E-02   0.8434065271E-02   0.3369364077E+03  -0.1308625330E+02  -0.1308625330E+02   0.6481945987E+00  -0.6481945987E+00  -0.1601133845E-13   0.3441145998E-01   0.3017194934E-01   0.3510918142E-01
   0.0000000000E+00   0.8434091833E-02   0.9915659082E+00   0.0000000000E+00   0.2656181750E-07  -0.2656181749E-07   0.0000000000E+00   0.8434065271E-02  -0.8434065271E-02   0.3369364077E+03  -0.1308625330E+02  -0.1308625330E+02  -0.6481945987E+00   0.6481945987E+00   0.3756421465E-14   0.3441145998E-01   0.3017194934E-01   0.3510918142E-01
   0.1035678274E+01   0.8199023704E-02   0.9918009763E+00   0.5273008480E-06   0.6144625988E-07  -0.6144625987E-07   0.3567774641E-01   0.8198962258E-02  -0.8198962257E-02   0.3489865285E+03  -0.1004931001E+01  -0.1004931001E+01  -0.6412980333E+00   0.6412980333E+00  -0.1119759652E-13   0.3406313411E-01   0.2987186693E-01   0.3486953615E-01
   0.1035678274E+01   0.9918009763E+00   0.9918009763E+00   0.5273008480E-06  -0.6144625987E-07  -0.6144625987E-07   0.3567774641E-01  -0.8198962257E-02  -0.8198962257E-02   0.3489865285E+03  -0.1004931001E+01  -0.1004931001E+01   0.6412980333E+00   0.6412980333E+00   0.2132577780E-11   0.3406313411E-01   0.2987186693E-01   0.3486953615E-01
   0.0000000000E+00   0.9915659082E+00   0.9915659082E+00   0.0000000000E+00  -0.2656181749E-07  -0.2656181749E-07   0.0000000000E+00  -0.8434065271E-02  -0.8434065271E-02   0.3369364077E+03  -0.1308625330E+02  -0.1308625330E+02   0.6481945987E+00   0.6481945987E+00   0.3562877726E-10   0.3441145998E-01   0.3017194934E-01   0.3510918141E-01
   0.2071000000E+01   0.8091148036E-02   0.8091148036E-02   0.1000000000E-05   0.9654535128E-07   0.9654535128E-07   0.7099900000E-01   0.8091051490E-02   0.8091051490E-02   0.3610176131E+03   0.1112472928E+02   0.1112472928E+02  -0.6341944210E+00  -0.6341944210E+00   0.3612127842E-10   0.3378467637E-01   0.2963104550E-01   0.3468739395E-01
   0.2071000000E+01   0.9919088520E+00   0.8091148036E-02   0.1000000000E-05  -0.9654535128E-07   0.9654535128E-07   0.7099900000E-01  -0.8091051490E-02   0.8091051490E-02   0.3610176131E+03   0.1112472928E+02   0.1112472928E+02   0.6341944210E+00  -0.6341944210E+00  -0.2035568334E-13   0.3378467637E-01   0.2963104550E-01   0.3468739395E-01
   0.2071000000E+01   0.8091148036E-02   0.9919088520E+00   0.1000000000E-05   0.9654535128E-07  -0.9654535128E-07   0.7099900000E-01   0.8091051490E-02  -0.8091051490E-02   0.3610176131E+03   0.1112472928E+02   0.1112472928E+02  -0.6341944210E+00   0.6341944210E+00   0.1318976018E-14   0.3378467637E-01   0.2963104550E-01   0.3468739395E-01
   0.2071000000E+01   0.9919088520E+00   0.9919088520E+00   0.1000000000E-05  -0.9654535128E-07  -0.9654535128E-07   0.7099900000E-01  -0.8091051490E-02  -0.8091051490E-02   0.3610176131E+03   0.1112472928E+02   0.1112472928E+02   0.6341944210E+00   0.6341944210E+00  -0.3614031512E-10   0.3378467637E-01   0.2963104550E-01   0.3468739395E-01
     1     2     3     4     5     6     7     8
     2     9    10     3     6    11    12     7
 VARIABLES = X,Y,Z,DU1,DU2,DU3,U1,U2,U3,S11,S22,S33,S12,S13,S23,OMEGA,EP,E11
 ZONE, T="0.7200D+00" F=FEPOINT, I=   12 J=    2 ET=BRICK
   0.0000000000E+00   0.8424447354E-02   0.8424447354E-02   0.0000000000E+00   0.5674771772E-07   0.5674771772E-07   0.0000000000E+00   0.8424390607E-02   0.8424390607E-02   0.3641183886E+03   0.1386583318E+02   0.1386583318E+02   0.2672117466E+00   0.2672117466E+00   0.4199664261E-10   0.3487736135E-01   0.3058205625E-01   0.3565581529E-01
   0.1036269410E+01   0.8295272901E-02   0.8295272901E-02   0.5824867553E-06   0.1543673886E-06   0.1543673886E-06   0.3626882710E-01   0.8295118534E-02   0.8295118534E-02   0.3553406237E+03   0.5256544638E+01   0.5256544638E+01   0.2742292108E+00   0.2742292108E+00   0.1454842975E-10   0.3457331859E-01   0.3032241775E-01   0.3535227902E-01
   0.1036269410E+01   0.9917047271E+00   0.8295272901E-02   0.5824867553E-06  -0.1543673886E-06   0.1543673886E-06   0.3626882710E-01  -0.8295118534E-02   0.8295118534E-02   0.3553406237E+03   0.5256544638E+01   0.5256544638E+01  -0.2742292108E+00   0.2742292108E+00  -0.1326193559E-13   0.3457331859E-01   0.3032241775E-01   0.3535227902E-01
   0.0000000000E+00   0.9915755526E+00   0.8424447354E-02   0.0000000000E+00  -0.5674771771E-07   0.5674771772E-07   0.0000000000E+00  -0.8424390606E-02   0.8424390607E-02   0.3641183886E+03   0.1386583318E+02   0.1386583318E+02  -0.2672117465E+00   0.2672117465E+00  -0.1282738719E-13   0.3487736135E-01   0.3058205625E-01   0.3565581529E-01
   0.0000000000E+00   0.8424447354E-02   0.9915755526E+00   0.0000000000E+00   0.5674771772E-07  -0.5674771771E-07   0.0000000000E+00   0.8424390607E-02  -0.8424390606E-02   0.3641183886E+03   0.1386583318E+02   0.1386583318E+02   0.2672117465E+00  -0.2672117465E+00   0.9989061444E-14   0.3487736135E-01   0.3058205625E-01   0.3565581529E-01
   0.1036269410E+01   0.8295272901E-02   0.9917047271E+00   0.5824867553E-06   0.1543673886E-06  -0.1543673886E-06   0.3626882710E-01   0.8295118534E-02  -0.8295118534E-02   0.3553406237E+03   0.5256544638E+01   0.5256544638E+01   0.2742292108E+00  -0.2742292108E+00   0.7752616668E-14   0.3457331859E-01   0.3032241775E-01   0.3535227902E-01
   0.1036269410E+01   0.9917047271E+00   0.9917047271E+00   0.5824867553E-06  -0.1543673886E-06  -0.1543673886E-06   0.3626882710E-01  -0.8295118534E-02  -0.8295118534E-02   0.3553406237E+03   0.5256544638E+01   0.5256544638E+01  -0.2742292108E+00  -0.2742292108E+00  -0.1455393906E-10   0.3457331859E-01   0.3032241774E-01   0.3535227902E-01
   0.0000000000E+00   0.9915755526E+00   0.9915755526E+00   0.0000000000E+00  -0.5674771772E-07  -0.5674771772E-07   0.0000000000E+00  -0.8424390606E-02  -0.8424390606E-02   0.3641183886E+03   0.1386583318E+02   0.1386583318E+02  -0.2672117465E+00  -0.2672117465E+00  -0.4199948093E-10   0.3487736134E-01   0.3058205625E-01   0.3565581529E-01
   0.2072000000E+01   0.8293091508E-02   0.8293091508E-02   0.1000000000E-05   0.2513660656E-06   0.2513660656E-06   0.7199900000E-01   0.8292840142E-02   0.8292840142E-02   0.3466314738E+03  -0.3347571153E+01  -0.3347571153E+01   0.2812164994E+00   0.2812164994E+00  -0.4592062210E-11   0.3433689173E-01   0.3012027980E-01   0.3510614424E-01
   0.2072000000E+01   0.9917069085E+00   0.8293091508E-02   0.1000000000E-05  -0.2513660656E-06   0.2513660656E-06   0.7199900000E-01  -0.8292840142E-02   0.8292840142E-02   0.3466314738E+03  -0.3347571152E+01  -0.3347571152E+01  -0.2812164994E+00   0.2812164994E+00   0.1140592964E-13   0.3433689173E-01   0.3012027980E-01   0.3510614424E-01
   0.2072000000E+01   0.8293091508E-02   0.9917069085E+00   0.1000000000E-05   0.2513660656E-06  -0.2513660656E-06   0.7199900000E-01   0.8292840142E-02  -0.8292840142E-02   0.3466314738E+03  -0.3347571152E+01  -0.3347571152E+01   0.2812164994E+00  -0.2812164994E+00   0.2051939731E-13   0.3433689173E-01   0.3012027980E-01   0.3510614424E-01
   0.2072000000E+01   0.9917069085E+00   0.9917069085E+00   0.1000000000E-05  -0.2513660656E-06  -0.2513660656E-06   0.7199900000E-01  -0.8292840142E-02  -0.8292840142E-02   0.3466314737E+03  -0.3347571152E+01  -0.3347571152E+01  -0.2812164993E+00  -0.2812164993E+00   0.4623987536E-11   0.3433689173E-01   0.3012027980E-01   0.3510614424E-01
     1     2     3     4     5     6     7     8
     2     9    10     3     6    11    12     7
 VARIABLES = X,Y,Z,DU1,DU2,DU3,U1,U2,U3,S11,S22,S33,S12,S13,S23,OMEGA,EP,E11
 ZONE, T="0.7300D+00" F=FEPOINT, I=   12 J=    2 ET=BRICK
   0.0000000000E+00   0.8605193065E-02   0.8605193065E-02   0.0000000000E+00   0.2424669071E-06   0.2424669071E-06   0.0000000000E+00   0.8604950598E-02   0.8604950598E-02   0.3478613695E+03  -0.2463697600E+01  -0.2463697600E+01   0.6599583167E-01   0.6599583167E-01  -0.2624238599E-11   0.3548754901E-01   0.3112388577E-01   0.3611810170E-01
   0.1036743911E+01   0.8456814830E-02   0.8456814830E-02   0.3822113784E-06   0.1236236610E-06   0.1236236610E-06   0.3674352867E-01   0.8456691206E-02   0.8456691206E-02   0.3435878672E+03  -0.6732617100E+01  -0.6732617100E+01   0.6839097724E-01   0.6839097724E-01  -0.1901774633E-10   0.3518842174E-01   0.3086076785E-01   0.3583489862E-01
   0.1036743911E+01   0.9915431852E+00   0.8456814830E-02   0.3822113784E-06  -0.1236236610E-06   0.1236236610E-06   0.3674352867E-01  -0.8456691206E-02   0.8456691206E-02   0.3435878671E+03  -0.6732617100E+01  -0.6732617100E+01  -0.6839097731E-01   0.6839097724E-01   0.2393773638E-14   0.3518842174E-01   0.3086076785E-01   0.3583489862E-01
   0.0000000000E+00   0.9913948069E+00   0.8605193065E-02   0.0000000000E+00  -0.2424669070E-06   0.2424669070E-06   0.0000000000E+00  -0.8604950598E-02   0.8604950598E-02   0.3478613695E+03  -0.2463697600E+01  -0.2463697600E+01  -0.6599583170E-01   0.6599583166E-01  -0.6918676285E-14   0.3548754901E-01   0.3112388576E-01   0.3611810170E-01
   0.0000000000E+00   0.8605193065E-02   0.9913948069E+00   0.0000000000E+00   0.2424669070E-06  -0.2424669070E-06   0.0000000000E+00   0.8604950598E-02  -0.8604950598E-02   0.3478613695E+03  -0.2463697600E+01  -0.2463697600E+01   0.6599583166E-01  -0.6599583170E-01   0.1441378386E-13   0.3548754901E-01   0.3112388576E-01   0.3611810170E-01
   0.1036743911E+01   0.8456814830E-02   0.9915431852E+00   0.3822113784E-06   0.1236236610E-06  -0.1236236610E-06   0.3674352867E-01   0.8456691206E-02  -0.8456691206E-02   0.3435878671E+03  -0.6732617100E+01  -0.6732617100E+01   0.6839097724E-01  -0.6839097731E-01   0.1970730991E-13   0.3518842174E-01   0.3086076785E-01   0.3583489862E-01
   0.1036743911E+01   0.9915431852E+00   0.9915431852E+00   0.3822113784E-06  -0.1236236610E-06  -0.1236236610E-06   0.3674352867E-01  -0.8456691206E-02  -0.8456691206E-02   0.3435878671E+03  -0.6732617100E+01  -0.6732617100E+01  -0.6839097731E-01  -0.6839097731E-01   0.1903984741E-10   0.3518842174E-01   0.3086076785E-01   0.3583489862E-01
   0.0000000000E+00   0.9913948069E+00   0.9913948069E+00   0.0000000000E+00  -0.2424669070E-06  -0.2424669070E-06   0.0000000000E+00  -0.8604950598E-02  -0.8604950598E-02   0.3478613695E+03  -0.2463697600E+01  -0.2463697600E+01  -0.6599583169E-01  -0.6599583169E-01   0.2631733706E-11   0.3548754901E-01   0.3112388576E-01   0.3611810170E-01
   0.2073000000E+01   0.8434465051E-02   0.8434465051E-02   0.1000000000E-05   0.3554110146E-08   0.3554110146E-08   0.7299900000E-01   0.8434461496E-02   0.8434461496E-02   0.3393004425E+03  -0.1095482846E+02  -0.1095482846E+02   0.7074034471E-01   0.7074034471E-01  -0.2658637687E-10   0.3495796497E-01   0.3065630239E-01   0.3560868274E-01
   0.2073000000E+01   0.9915655349E+00   0.8434465051E-02   0.1000000000E-05  -0.3554110146E-08   0.3554110151E-08   0.7299900000E-01  -0.8434461496E-02   0.8434461496E-02   0.3393004425E+03  -0.1095482846E+02  -0.1095482846E+02  -0.7074034474E-01   0.7074034471E-01   0.1930722738E-13   0.3495796497E-01   0.3065630239E-01   0.3560868274E-01
   0.2073000000E+01   0.8434465051E-02   0.9915655349E+00   0.1000000000E-05   0.3554110151E-08  -0.3554110146E-08   0.7299900000E-01   0.8434461496E-02  -0.8434461496E-02   0.3393004425E+03  -0.1095482846E+02  -0.1095482846E+02   0.7074034471E-01  -0.7074034474E-01   0.1309709324E-13   0.3495796497E-01   0.3065630239E-01   0.3560868274E-01
   0.2073000000E+01   0.9915655349E+00   0.9915655349E+00   0.1000000000E-05  -0.3554110151E-08  -0.3554110151E-08   0.7299900000E-01  -0.8434461496E-02  -0.8434461496E-02   0.3393004425E+03  -0.1095482846E+02  -0.1095482846E+02  -0.7074034473E-01  -0.7074034473E-01   0.2661878119E-10   0.3495796496E-01   0.3065630238E-01   0.3560868274E-01
     1     2     3     4     5     6     7     8
     2     9    10     3     6    11    12     7
 VARIABLES = X,Y,Z,DU1,DU2,DU3,U1,U2,U3,S11,S22,S33,S12,S13,S23,OMEGA,EP,E11
 ZONE, T="0.7400D+00" F=FEPOINT, I=   12 J=    2 ET=BRICK
   0.0000000000E+00   0.8762810269E-02   0.8762810269E-02   0.0000000000E+00   0.5220186322E-07   0.5220186322E-07   0.0000000000E+00   0.8762758067E-02   0.8762758067E-02   0.3426626903E+03  -0.7923457750E+01  -0.7923457750E+01  -0.5693262645E+00  -0.5693262645E+00  -0.1148597037E-10   0.3599975415E-01   0.3156792316E-01   0.3653868955E-01
   0.1037161592E+01   0.8535418256E-02   0.8535418256E-02   0.5107148983E-06   0.7571562357E-07   0.7571562357E-07   0.3716108141E-01   0.8535342541E-02   0.8535342541E-02   0.3548092197E+03   0.4464670818E+01   0.4464670818E+01  -0.5731101814E+00  -0.5731101814E+00   0.1246998239E-10   0.3567654117E-01   0.3128766062E-01   0.3631733841E-01
   0.1037161592E+01   0.9914645817E+00   0.8535418256E-02   0.5107148983E-06  -0.7571562356E-07   0.7571562357E-07   0.3716108141E-01  -0.8535342540E-02   0.8535342541E-02   0.3548092197E+03   0.4464670818E+01   0.4464670818E+01   0.5731101814E+00  -0.5731101814E+00  -0.7261597453E-14   0.3567654117E-01   0.3128766062E-01   0.3631733840E-01
   0.0000000000E+00   0.9912371897E+00   0.8762810269E-02   0.0000000000E+00  -0.5220186322E-07   0.5220186322E-07   0.0000000000E+00  -0.8762758067E-02   0.8762758067E-02   0.3426626903E+03  -0.7923457749E+01  -0.7923457749E+01   0.5693262645E+00  -0.5693262645E+00  -0.1927220626E-13   0.3599975415E-01   0.3156792316E-01   0.3653868955E-01
   0.0000000000E+00   0.8762810269E-02   0.9912371897E+00   0.0000000000E+00   0.5220186322E-07  -0.5220186322E-07   0.0000000000E+00   0.8762758067E-02  -0.8762758067E-02   0.3426626903E+03  -0.7923457749E+01  -0.7923457749E+01  -0.5693262645E+00   0.5693262645E+00   0.1968978423E-14   0.3599975415E-01   0.3156792316E-01   0.3653868955E-01
   0.1037161592E+01   0.8535418256E-02   0.9914645817E+00   0.5107148983E-06   0.7571562357E-07  -0.7571562356E-07   0.3716108141E-01   0.8535342541E-02  -0.8535342540E-02   0.3548092197E+03   0.4464670818E+01   0.4464670818E+01  -0.5731101814E+00   0.5731101814E+00   0.8956490779E-14   0.3567654117E-01   0.3128766062E-01   0.3631733840E-01
   0.1037161592E+01   0.9914645817E+00   0.9914645817E+00   0.5107148983E-06  -0.7571562357E-07  -0.7571562357E-07   0.3716108141E-01  -0.8535342540E-02  -0.8535342540E-02   0.3548092196E+03   0.4464670818E+01   0.4464670818E+01   0.5731101813E+00   0.5731101813E+00  -0.1246828749E-10   0.3567654117E-01   0.3128766062E-01   0.3631733840E-01
   0.0000000000E+00   0.9912371897E+00   0.9912371897E+00   0.0000000000E+00  -0.5220186322E-07  -0.5220186322E-07   0.0000000000E+00  -0.8762758067E-02  -0.8762758067E-02   0.3426626903E+03  -0.7923457749E+01  -0.7923457749E+01   0.5693262644E+00   0.5693262644E+00   0.1146866714E-10   0.3599975415E-01   0.3156792316E-01   0.3653868955E-01
   0.2074000000E+01   0.8432728534E-02   0.8432728534E-02   0.1000000000E-05   0.9789024259E-07   0.9789024259E-07   0.7399900000E-01   0.8432630644E-02   0.8432630644E-02   0.3671520803E+03   0.1679281474E+02   0.1679281474E+02  -0.5773931154E+00  -0.5773931154E+00   0.4331653893E-10   0.3541721014E-01   0.3106145636E-01   0.3615240230E-01
   0.2074000000E+01   0.9915672715E+00   0.8432728534E-02   0.1000000000E-05  -0.9789024258E-07   0.9789024259E-07   0.7399900000E-01  -0.8432630643E-02   0.8432630644E-02   0.3671520803E+03   0.1679281474E+02   0.1679281474E+02   0.5773931153E+00  -0.5773931154E+00   0.3187501313E-14   0.3541721014E-01   0.3106145636E-01   0.3615240230E-01
   0.2074000000E+01   0.8432728534E-02   0.9915672715E+00   0.1000000000E-05   0.9789024259E-07  -0.9789024258E-07   0.7399900000E-01   0.8432630644E-02  -0.8432630643E-02   0.3671520803E+03   0.1679281474E+02   0.1679281474E+02  -0.5773931154E+00   0.5773931153E+00  -0.1211427993E-13   0.3541721014E-01   0.3106145636E-01   0.3615240230E-01
   0.2074000000E+01   0.9915672715E+00   0.9915672715E+00   0.1000000000E-05  -0.9789024259E-07  -0.9789024259E-07   0.7399900000E-01  -0.8432630643E-02  -0.8432630643E-02   0.3671520803E+03   0.1679281474E+02   0.1679281474E+02   0.5773931153E+00   0.5773931153E+00  -0.4332546571E-10   0.3541721014E-01   0.3106145636E-01   0.3615240229E-01
     1     2     3     4     5     6     7     8
     2     9    10     3     6    11    12     7
 VARIABLES = X,Y,Z,DU1,DU2,DU3,U1,U2,U3,S11,S22,S33,S12,S13,S23,OMEGA,EP,E11
 ZONE, T="0.7500D+00" F=FEPOINT, I=   12 J=    2 ET=BRICK
   0.0000000000E+00   0.8793282700E-02   0.8793282700E-02   0.0000000000E+00   0.6840316946E-07   0.6840316946E-07   0.0000000000E+00   0.8793214297E-02   0.8793214297E-02   0.3583472847E+03   0.7664145194E+01   0.7664145194E+01   0.3205766371E+00   0.3205766371E+00   0.2503932411E-10   0.3652334825E-01   0.3202834450E-01   0.3707770014E-01
   0.1037745107E+01   0.8669281628E-02   0.8669281628E-02   0.5871172038E-06   0.1757776567E-06   0.1757776567E-06   0.3774451942E-01   0.8669105851E-02   0.8669105851E-02   0.3507798642E+03   0.1978168778E+00   0.1978168778E+00   0.3131077635E+00   0.3131077635E+00  -0.2223961851E-11   0.3624240412E-01   0.3178747184E-01   0.3679950454E-01
   0.1037745107E+01   0.9913307184E+00   0.8669281628E-02   0.5871172038E-06  -0.1757776566E-06   0.1757776566E-06   0.3774451942E-01  -0.8669105850E-02   0.8669105851E-02   0.3507798642E+03   0.1978168778E+00   0.1978168778E+00  -0.3131077635E+00   0.3131077635E+00  -0.2078442826E-13   0.3624240412E-01   0.3178747184E-01   0.3679950454E-01
   0.0000000000E+00   0.9912067173E+00   0.8793282700E-02   0.0000000000E+00  -0.6840316946E-07   0.6840316946E-07   0.0000000000E+00  -0.8793214296E-02   0.8793214297E-02   0.3583472847E+03   0.7664145193E+01   0.7664145193E+01  -0.3205766370E+00   0.3205766370E+00  -0.2383874799E-13   0.3652334825E-01   0.3202834450E-01   0.3707770014E-01
   0.0000000000E+00   0.8793282700E-02   0.9912067173E+00   0.0000000000E+00   0.6840316946E-07  -0.6840316946E-07   0.0000000000E+00   0.8793214297E-02  -0.8793214296E-02   0.3583472847E+03   0.7664145193E+01   0.7664145193E+01   0.3205766370E+00  -0.3205766370E+00  -0.2426523771E-14   0.3652334825E-01   0.3202834450E-01   0.3707770014E-01
   0.1037745107E+01   0.8669281628E-02   0.9913307184E+00   0.5871172038E-06   0.1757776566E-06  -0.1757776566E-06   0.3774451942E-01   0.8669105851E-02  -0.8669105850E-02   0.3507798642E+03   0.1978168778E+00   0.1978168778E+00   0.3131077635E+00  -0.3131077635E+00  -0.4127089440E-14   0.3624240412E-01   0.3178747184E-01   0.3679950454E-01
   0.1037745107E+01   0.9913307184E+00   0.9913307184E+00   0.5871172038E-06  -0.1757776566E-06  -0.1757776566E-06   0.3774451942E-01  -0.8669105850E-02  -0.8669105850E-02   0.3507798642E+03   0.1978168778E+00   0.1978168778E+00  -0.3131077634E+00  -0.3131077634E+00   0.2199050333E-11   0.3624240412E-01   0.3178747184E-01   0.3679950454E-01
   0.0000000000E+00   0.9912067173E+00   0.9912067173E+00   0.0000000000E+00  -0.6840316946E-07  -0.6840316946E-07   0.0000000000E+00  -0.8793214296E-02  -0.8793214296E-02   0.3583472847E+03   0.7664145193E+01   0.7664145193E+01  -0.3205766370E+00  -0.3205766370E+00  -0.2506558938E-10   0.3652334824E-01   0.3202834450E-01   0.3707770014E-01
   0.2075000000E+01   0.8668730622E-02   0.8668730622E-02   0.1000000000E-05   0.2820296707E-06   0.2820296707E-06   0.7499900000E-01   0.8668448592E-02   0.8668448592E-02   0.3432425721E+03  -0.7244694506E+01  -0.7244694506E+01   0.3056808995E+00   0.3056808995E+00  -0.2661461762E-10   0.3602797826E-01   0.3160324353E-01   0.3657715131E-01
   0.2075000000E+01   0.9913312694E+00   0.8668730622E-02   0.1000000000E-05  -0.2820296706E-06   0.2820296706E-06   0.7499900000E-01  -0.8668448592E-02   0.8668448592E-02   0.3432425721E+03  -0.7244694506E+01  -0.7244694506E+01  -0.3056808994E+00   0.3056808994E+00  -0.9900199432E-14   0.3602797826E-01   0.3160324353E-01   0.3657715131E-01
   0.2075000000E+01   0.8668730622E-02   0.9913312694E+00   0.1000000000E-05   0.2820296706E-06  -0.2820296706E-06   0.7499900000E-01   0.8668448592E-02  -0.8668448592E-02   0.3432425721E+03  -0.7244694506E+01  -0.7244694506E+01   0.3056808994E+00  -0.3056808994E+00  -0.2869385536E-13   0.3602797826E-01   0.3160324353E-01   0.3657715131E-01
   0.2075000000E+01   0.9913312694E+00   0.9913312694E+00   0.1000000000E-05  -0.2820296706E-06  -0.2820296706E-06   0.7499900000E-01  -0.8668448592E-02  -0.8668448592E-02   0.3432425721E+03  -0.7244694505E+01  -0.7244694505E+01  -0.3056808994E+00  -0.3056808994E+00   0.2657602357E-10   0.3602797825E-01   0.3160324353E-01   0.3657715131E-01
     1     2     3     4     5     6     7     8
     2     9    10     3     6    11    12     7
 VARIABLES = X,Y,Z,DU1,DU2,DU3,U1,U2,U3,S11,S22,S33,S12,S13,S23,OMEGA,EP,E11
 ZONE, T="0.7600D+00" F=FEPOINT, I=   12 J=    2 ET=BRICK
   0.0000000000E+00   0.8935925466E-02   0.8935925466E-02   0.0000000000E+00   0.1900300315E-06   0.1900300315E-06   0.0000000000E+00   0.8935735436E-02   0.8935735436E-02   0.3515109949E+03   0.6248146273E+00   0.6248146273E+00   0.2173163069E+00   0.2173163069E+00  -0.7877859200E-12   0.3708721973E-01   0.3252712316E-01   0.3754465114E-01
   0.1038228083E+01   0.8805303996E-02   0.8805303996E-02   0.3864402309E-06   0.7776432513E-07   0.7776432513E-07   0.3822769632E-01   0.8805226232E-02   0.8805226232E-02   0.3459996289E+03  -0.4757137700E+01  -0.4757137700E+01   0.2066699742E+00   0.2066699742E+00  -0.1425969277E-10   0.3682074094E-01   0.3229131865E-01   0.3728141742E-01
   0.1038228083E+01   0.9911946960E+00   0.8805303996E-02   0.3864402310E-06  -0.7776432512E-07   0.7776432513E-07   0.3822769632E-01  -0.8805226232E-02   0.8805226232E-02   0.3459996288E+03  -0.4757137700E+01  -0.4757137700E+01  -0.2066699741E+00   0.2066699742E+00  -0.1514206408E-13   0.3682074094E-01   0.3229131865E-01   0.3728141742E-01
   0.0000000000E+00   0.9910640745E+00   0.8935925466E-02   0.0000000000E+00  -0.1900300315E-06   0.1900300315E-06   0.0000000000E+00  -0.8935735436E-02   0.8935735436E-02   0.3515109949E+03   0.6248146273E+00   0.6248146273E+00  -0.2173163068E+00   0.2173163069E+00  -0.8226842852E-14   0.3708721973E-01   0.3252712315E-01   0.3754465114E-01
   0.0000000000E+00   0.8935925466E-02   0.9910640745E+00   0.0000000000E+00   0.1900300315E-06  -0.1900300315E-06   0.0000000000E+00   0.8935735436E-02  -0.8935735436E-02   0.3515109949E+03   0.6248146273E+00   0.6248146273E+00   0.2173163069E+00  -0.2173163068E+00   0.8049732132E-14   0.3708721973E-01   0.3252712315E-01   0.3754465114E-01
   0.1038228083E+01   0.8805303996E-02   0.9911946960E+00   0.3864402310E-06   0.7776432513E-07  -0.7776432512E-07   0.3822769632E-01   0.8805226232E-02  -0.8805226232E-02   0.3459996288E+03  -0.4757137700E+01  -0.4757137700E+01   0.2066699742E+00  -0.2066699741E+00   0.1888245610E-14   0.3682074094E-01   0.3229131865E-01   0.3728141742E-01
   0.1038228083E+01   0.9911946960E+00   0.9911946960E+00   0.3864402310E-06  -0.7776432512E-07  -0.7776432512E-07   0.3822769632E-01  -0.8805226232E-02  -0.8805226232E-02   0.3459996288E+03  -0.4757137700E+01  -0.4757137700E+01  -0.2066699741E+00  -0.2066699741E+00   0.1424643895E-10   0.3682074094E-01   0.3229131865E-01   0.3728141742E-01
   0.0000000000E+00   0.9910640745E+00   0.9910640745E+00   0.0000000000E+00  -0.1900300315E-06  -0.1900300315E-06   0.0000000000E+00  -0.8935735436E-02  -0.8935735436E-02   0.3515109949E+03   0.6248146273E+00   0.6248146273E+00  -0.2173163068E+00  -0.2173163068E+00   0.7876088093E-12   0.3708721973E-01   0.3252712315E-01   0.3754465114E-01
   0.2076000000E+01   0.8797238600E-02   0.8797238600E-02   0.1000000000E-05  -0.3511606740E-07  -0.3511606740E-07   0.7599900000E-01   0.8797273716E-02   0.8797273716E-02   0.3406021669E+03  -0.1015723178E+02  -0.1015723178E+02   0.1961390208E+00   0.1961390208E+00  -0.2942168128E-10   0.3661837793E-01   0.3211017230E-01   0.3707363764E-01
   0.2076000000E+01   0.9912027614E+00   0.8797238600E-02   0.1000000000E-05   0.3511606740E-07  -0.3511606739E-07   0.7599900000E-01  -0.8797273716E-02   0.8797273716E-02   0.3406021669E+03  -0.1015723178E+02  -0.1015723178E+02  -0.1961390207E+00   0.1961390208E+00   0.1076927318E-14   0.3661837792E-01   0.3211017230E-01   0.3707363764E-01
   0.2076000000E+01   0.8797238600E-02   0.9912027614E+00   0.1000000000E-05  -0.3511606739E-07   0.3511606740E-07   0.7599900000E-01   0.8797273716E-02  -0.8797273716E-02   0.3406021669E+03  -0.1015723178E+02  -0.1015723178E+02   0.1961390208E+00  -0.1961390207E+00  -0.1496401059E-13   0.3661837792E-01   0.3211017230E-01   0.3707363764E-01
   0.2076000000E+01   0.9912027614E+00   0.9912027614E+00   0.1000000000E-05   0.3511606739E-07   0.3511606739E-07   0.7599900000E-01  -0.8797273716E-02  -0.8797273716E-02   0.3406021669E+03  -0.1015723178E+02  -0.1015723178E+02  -0.1961390207E+00  -0.1961390207E+00   0.2940779419E-10   0.3661837792E-01   0.3211017230E-01   0.3707363764E-01
     1     2     3     4     5     6     7     8
     2     9    10     3     6    11    12     7
 VARIABLES = X,Y,Z,DU1,DU2,DU3,U1,U2,U3,S11,S22,S33,S12,S13,S23,OMEGA,EP,E11
 ZONE, T="0.7700D+00" F=FEPOINT, I=   12 J=    2 ET=BRICK
   0.0000000000E+00   0.9098509523E-02   0.9098509523E-02   0.0000000000E+00   0.1106043228E-06   0.1106043228E-06   0.0000000000E+00   0.9098398918E-02   0.9098398918E-02   0.3452386519E+03  -0.5750270296E+01  -0.5750270296E+01  -0.4821718745E+00  -0.4821718745E+00  -0.1801198129E-10   0.3759706855E-01   0.3297244243E-01   0.3795971809E-01
   0.1038639105E+01   0.8882500892E-02   0.8882500892E-02   0.4974722316E-06   0.1196953804E-06   0.1196953804E-06   0.3863860752E-01   0.8882381196E-02   0.8882381196E-02   0.3576091400E+03   0.6666089859E+01   0.6666089859E+01  -0.4932899977E+00  -0.4932899977E+00   0.1876944890E-10   0.3730086750E-01   0.3271395394E-01   0.3776304033E-01
   0.1038639105E+01   0.9911174991E+00   0.8882500892E-02   0.4974722316E-06  -0.1196953804E-06   0.1196953804E-06   0.3863860752E-01  -0.8882381196E-02   0.8882381196E-02   0.3576091400E+03   0.6666089859E+01   0.6666089859E+01   0.4932899977E+00  -0.4932899977E+00  -0.6371274615E-14   0.3730086749E-01   0.3271395394E-01   0.3776304033E-01
   0.0000000000E+00   0.9909014905E+00   0.9098509523E-02   0.0000000000E+00  -0.1106043227E-06   0.1106043228E-06   0.0000000000E+00  -0.9098398918E-02   0.9098398918E-02   0.3452386519E+03  -0.5750270295E+01  -0.5750270295E+01   0.4821718745E+00  -0.4821718745E+00   0.2295379289E-14   0.3759706855E-01   0.3297244243E-01   0.3795971809E-01
   0.0000000000E+00   0.9098509523E-02   0.9909014905E+00   0.0000000000E+00   0.1106043228E-06  -0.1106043227E-06   0.0000000000E+00   0.9098398918E-02  -0.9098398918E-02   0.3452386519E+03  -0.5750270295E+01  -0.5750270295E+01  -0.4821718745E+00   0.4821718745E+00   0.8188338441E-14   0.3759706855E-01   0.3297244243E-01   0.3795971809E-01
   0.1038639105E+01   0.8882500892E-02   0.9911174991E+00   0.4974722316E-06   0.1196953804E-06  -0.1196953804E-06   0.3863860752E-01   0.8882381196E-02  -0.8882381196E-02   0.3576091400E+03   0.6666089859E+01   0.6666089859E+01  -0.4932899977E+00   0.4932899977E+00   0.1414639887E-13   0.3730086749E-01   0.3271395394E-01   0.3776304033E-01
   0.1038639105E+01   0.9911174991E+00   0.9911174991E+00   0.4974722316E-06  -0.1196953804E-06  -0.1196953804E-06   0.3863860752E-01  -0.8882381196E-02  -0.8882381196E-02   0.3576091400E+03   0.6666089858E+01   0.6666089858E+01   0.4932899977E+00   0.4932899977E+00  -0.1876167377E-10   0.3730086749E-01   0.3271395393E-01   0.3776304033E-01
   0.0000000000E+00   0.9909014905E+00   0.9909014905E+00   0.0000000000E+00  -0.1106043227E-06  -0.1106043227E-06   0.0000000000E+00  -0.9098398918E-02  -0.9098398918E-02   0.3452386519E+03  -0.5750270295E+01  -0.5750270295E+01   0.4821718745E+00   0.4821718745E+00   0.1802246501E-10   0.3759706855E-01   0.3297244243E-01   0.3795971809E-01
   0.2077000000E+01   0.8788783186E-02   0.8788783186E-02   0.1000000000E-05   0.1288774071E-06   0.1288774071E-06   0.7699900000E-01   0.8788654309E-02   0.8788654309E-02   0.3700298962E+03   0.1909489036E+02   0.1909489036E+02  -0.5046225244E+00  -0.5046225244E+00   0.5030949253E-10   0.3707047263E-01   0.3251122216E-01   0.3762172261E-01
   0.2077000000E+01   0.9912112168E+00   0.8788783186E-02   0.1000000000E-05  -0.1288774071E-06   0.1288774071E-06   0.7699900000E-01  -0.8788654308E-02   0.8788654309E-02   0.3700298962E+03   0.1909489036E+02   0.1909489036E+02   0.5046225244E+00  -0.5046225244E+00   0.2197599637E-13   0.3707047263E-01   0.3251122216E-01   0.3762172261E-01
   0.2077000000E+01   0.8788783186E-02   0.9912112168E+00   0.1000000000E-05   0.1288774071E-06  -0.1288774071E-06   0.7699900000E-01   0.8788654309E-02  -0.8788654308E-02   0.3700298962E+03   0.1909489036E+02   0.1909489036E+02  -0.5046225244E+00   0.5046225244E+00   0.1762282898E-13   0.3707047263E-01   0.3251122216E-01   0.3762172261E-01
   0.2077000000E+01   0.9912112168E+00   0.9912112168E+00   0.1000000000E-05  -0.1288774071E-06  -0.1288774071E-06   0.7699900000E-01  -0.8788654308E-02  -0.8788654308E-02   0.3700298962E+03   0.1909489036E+02   0.1909489036E+02   0.5046225244E+00   0.5046225244E+00  -0.5026989370E-10   0.3707047263E-01   0.3251122216E-01   0.3762172261E-01
     1     2     3     4     5     6     7     8
     2     9    10     3     6    11    12     7
 VARIABLES = X,Y,Z,DU1,DU2,DU3,U1,U2,U3,S11,S22,S33,S12,S13,S23,OMEGA,EP,E11
 ZONE, T="0.7800D+00" F=FEPOINT, I=   12 J=    2 ET=BRICK
   0.0000000000E+00   0.9161350798E-02   0.9161350798E-02   0.0000000000E+00   0.4249114661E-07   0.4249114661E-07   0.0000000000E+00   0.9161308307E-02   0.9161308307E-02   0.3524619059E+03   0.1210022106E+01   0.1210022106E+01   0.3500833225E+00   0.3500833225E+00  -0.2160975691E-11   0.3816473987E-01   0.3346859269E-01   0.3849427481E-01
   0.1039217330E+01   0.9042262855E-02   0.9042262855E-02   0.5937976003E-06   0.1556696802E-06   0.1556696802E-06   0.3921673628E-01   0.9042107186E-02   0.9042107186E-02   0.3460565215E+03  -0.4990399425E+01  -0.4990399425E+01   0.3423466579E+00   0.3423466579E+00  -0.1329126544E-10   0.3791177103E-01   0.3325122972E-01   0.3824432749E-01
   0.1039217330E+01   0.9909577371E+00   0.9042262855E-02   0.5937976003E-06  -0.1556696802E-06   0.1556696802E-06   0.3921673628E-01  -0.9042107185E-02   0.9042107186E-02   0.3460565215E+03  -0.4990399425E+01  -0.4990399425E+01  -0.3423466579E+00   0.3423466579E+00  -0.1118570486E-13   0.3791177103E-01   0.3325122972E-01   0.3824432748E-01
   0.0000000000E+00   0.9908386492E+00   0.9161350798E-02   0.0000000000E+00  -0.4249114660E-07   0.4249114661E-07   0.0000000000E+00  -0.9161308306E-02   0.9161308307E-02   0.3524619059E+03   0.1210022106E+01   0.1210022106E+01  -0.3500833225E+00   0.3500833225E+00   0.4082150458E-15   0.3816473986E-01   0.3346859269E-01   0.3849427481E-01
   0.0000000000E+00   0.9161350798E-02   0.9908386492E+00   0.0000000000E+00   0.4249114661E-07  -0.4249114660E-07   0.0000000000E+00   0.9161308307E-02  -0.9161308306E-02   0.3524619059E+03   0.1210022106E+01   0.1210022106E+01   0.3500833225E+00  -0.3500833225E+00  -0.1259622937E-13   0.3816473986E-01   0.3346859269E-01   0.3849427481E-01
   0.1039217330E+01   0.9042262855E-02   0.9909577371E+00   0.5937976003E-06   0.1556696802E-06  -0.1556696802E-06   0.3921673628E-01   0.9042107186E-02  -0.9042107185E-02   0.3460565215E+03  -0.4990399425E+01  -0.4990399425E+01   0.3423466579E+00  -0.3423466579E+00   0.7239779162E-14   0.3791177103E-01   0.3325122972E-01   0.3824432748E-01
   0.1039217330E+01   0.9909577371E+00   0.9909577371E+00   0.5937976003E-06  -0.1556696802E-06  -0.1556696802E-06   0.3921673628E-01  -0.9042107185E-02  -0.9042107185E-02   0.3460565215E+03  -0.4990399425E+01  -0.4990399425E+01  -0.3423466579E+00  -0.3423466579E+00   0.1328731951E-10   0.3791177103E-01   0.3325122971E-01   0.3824432748E-01
   0.0000000000E+00   0.9908386492E+00   0.9908386492E+00   0.0000000000E+00  -0.4249114661E-07  -0.4249114661E-07   0.0000000000E+00  -0.9161308306E-02  -0.9161308306E-02   0.3524619058E+03   0.1210022106E+01   0.1210022106E+01  -0.3500833225E+00  -0.3500833225E+00   0.2148787677E-11   0.3816473986E-01   0.3346859269E-01   0.3849427481E-01
   0.2078000000E+01   0.9045850582E-02   0.9045850582E-02   0.1000000000E-05   0.2694701876E-06   0.2694701876E-06   0.7799900000E-01   0.9045581112E-02   0.9045581112E-02   0.3398549317E+03  -0.1125381693E+02  -0.1125381693E+02   0.3349156830E+00   0.3349156830E+00  -0.3137194812E-10   0.3772104087E-01   0.3308689819E-01   0.3804991311E-01
   0.2078000000E+01   0.9909541494E+00   0.9045850582E-02   0.1000000000E-05  -0.2694701876E-06   0.2694701876E-06   0.7799900000E-01  -0.9045581111E-02   0.9045581112E-02   0.3398549317E+03  -0.1125381693E+02  -0.1125381693E+02  -0.3349156830E+00   0.3349156830E+00   0.1706107537E-13   0.3772104087E-01   0.3308689819E-01   0.3804991311E-01
   0.2078000000E+01   0.9045850582E-02   0.9909541494E+00   0.1000000000E-05   0.2694701876E-06  -0.2694701876E-06   0.7799900000E-01   0.9045581112E-02  -0.9045581111E-02   0.3398549317E+03  -0.1125381693E+02  -0.1125381693E+02   0.3349156830E+00  -0.3349156830E+00   0.2628636797E-13   0.3772104087E-01   0.3308689819E-01   0.3804991311E-01
   0.2078000000E+01   0.9909541494E+00   0.9909541494E+00   0.1000000000E-05  -0.2694701876E-06  -0.2694701876E-06   0.7799900000E-01  -0.9045581111E-02  -0.9045581111E-02   0.3398549316E+03  -0.1125381693E+02  -0.1125381693E+02  -0.3349156830E+00  -0.3349156830E+00   0.3141529556E-10   0.3772104086E-01   0.3308689819E-01   0.3804991310E-01
     1     2     3     4     5     6     7     8
     2     9    10     3     6    11    12     7
 VARIABLES = X,Y,Z,DU1,DU2,DU3,U1,U2,U3,S11,S22,S33,S12,S13,S23,OMEGA,EP,E11
 ZONE, T="0.7900D+00" F=FEPOINT, I=   12 J=    2 ET=BRICK
   0.0000000000E+00   0.9255315434E-02   0.9255315434E-02   0.0000000000E+00   0.1671680005E-06   0.1671680005E-06   0.0000000000E+00   0.9255148266E-02   0.9255148266E-02   0.3583099671E+03   0.7107084260E+01   0.7107084260E+01   0.3316912333E+00   0.3316912333E+00   0.1391711873E-10   0.3866991785E-01   0.3391537577E-01   0.3896944158E-01
   0.1039711949E+01   0.9139850876E-02   0.9139850876E-02   0.3949731721E-06   0.6081800077E-07   0.6081800077E-07   0.3971155414E-01   0.9139790058E-02   0.9139790058E-02   0.3518254078E+03   0.5864096309E+00   0.5864096309E+00   0.3274242981E+00   0.3274242981E+00   0.5421298113E-11   0.3842923559E-01   0.3370201570E-01   0.3872535416E-01
   0.1039711949E+01   0.9908601491E+00   0.9139850876E-02   0.3949731721E-06  -0.6081800076E-07   0.6081800077E-07   0.3971155414E-01  -0.9139790057E-02   0.9139790058E-02   0.3518254078E+03   0.5864096308E+00   0.5864096308E+00  -0.3274242982E+00   0.3274242981E+00  -0.1501617190E-13   0.3842923559E-01   0.3370201570E-01   0.3872535416E-01
   0.0000000000E+00   0.9907446846E+00   0.9255315434E-02   0.0000000000E+00  -0.1671680005E-06   0.1671680005E-06   0.0000000000E+00  -0.9255148265E-02   0.9255148266E-02   0.3583099671E+03   0.7107084260E+01   0.7107084260E+01  -0.3316912333E+00   0.3316912333E+00   0.3803677438E-15   0.3866991785E-01   0.3391537576E-01   0.3896944158E-01
   0.0000000000E+00   0.9255315434E-02   0.9907446846E+00   0.0000000000E+00   0.1671680005E-06  -0.1671680005E-06   0.0000000000E+00   0.9255148266E-02  -0.9255148265E-02   0.3583099671E+03   0.7107084260E+01   0.7107084260E+01   0.3316912333E+00  -0.3316912333E+00  -0.2864872240E-13   0.3866991785E-01   0.3391537576E-01   0.3896944158E-01
   0.1039711949E+01   0.9139850876E-02   0.9908601491E+00   0.3949731721E-06   0.6081800077E-07  -0.6081800076E-07   0.3971155414E-01   0.9139790058E-02  -0.9139790057E-02   0.3518254078E+03   0.5864096308E+00   0.5864096308E+00   0.3274242981E+00  -0.3274242982E+00  -0.4471781124E-14   0.3842923559E-01   0.3370201570E-01   0.3872535416E-01
   0.1039711949E+01   0.9908601491E+00   0.9908601491E+00   0.3949731721E-06  -0.6081800077E-07  -0.6081800077E-07   0.3971155414E-01  -0.9139790057E-02  -0.9139790057E-02   0.3518254078E+03   0.5864096308E+00   0.5864096308E+00  -0.3274242981E+00  -0.3274242981E+00  -0.5440786066E-11   0.3842923559E-01   0.3370201569E-01   0.3872535416E-01
   0.0000000000E+00   0.9907446846E+00   0.9907446846E+00   0.0000000000E+00  -0.1671680005E-06  -0.1671680005E-06   0.0000000000E+00  -0.9255148265E-02  -0.9255148265E-02   0.3583099671E+03   0.7107084259E+01   0.7107084259E+01  -0.3316912333E+00  -0.3316912333E+00  -0.1394538709E-10   0.3866991785E-01   0.3391537576E-01   0.3896944157E-01
   0.2079000000E+01   0.9147840173E-02   0.9147840173E-02   0.1000000000E-05  -0.4463929690E-07  -0.4463929690E-07   0.7899900000E-01   0.9147884812E-02   0.9147884812E-02   0.3453164357E+03  -0.5883136562E+01  -0.5883136562E+01   0.3231093345E+00   0.3231093345E+00  -0.9247915049E-11   0.3825621258E-01   0.3354639095E-01   0.3853716253E-01
   0.2079000000E+01   0.9908521598E+00   0.9147840173E-02   0.1000000000E-05   0.4463929689E-07  -0.4463929689E-07   0.7899900000E-01  -0.9147884812E-02   0.9147884812E-02   0.3453164357E+03  -0.5883136562E+01  -0.5883136562E+01  -0.3231093345E+00   0.3231093345E+00   0.1197852083E-13   0.3825621258E-01   0.3354639095E-01   0.3853716253E-01
   0.2079000000E+01   0.9147840173E-02   0.9908521598E+00   0.1000000000E-05  -0.4463929689E-07   0.4463929689E-07   0.7899900000E-01   0.9147884812E-02  -0.9147884812E-02   0.3453164357E+03  -0.5883136562E+01  -0.5883136562E+01   0.3231093345E+00  -0.3231093345E+00   0.2703676090E-13   0.3825621258E-01   0.3354639095E-01   0.3853716253E-01
   0.2079000000E+01   0.9908521598E+00   0.9908521598E+00   0.1000000000E-05   0.4463929689E-07   0.4463929689E-07   0.7899900000E-01  -0.9147884812E-02  -0.9147884812E-02   0.3453164357E+03  -0.5883136562E+01  -0.5883136562E+01  -0.3231093345E+00  -0.3231093345E+00   0.9286930330E-11   0.3825621258E-01   0.3354639095E-01   0.3853716253E-01
     1     2     3     4     5     6     7     8
     2     9    10     3     6    11    12     7
 VARIABLES = X,Y,Z,DU1,DU2,DU3,U1,U2,U3,S11,S22,S33,S12,S13,S23,OMEGA,EP,E11
 ZONE, T="0.8000D+00" F=FEPOINT, I=   12 J=    2 ET=BRICK
   0.0000000000E+00   0.9452517249E-02   0.9452517249E-02   0.0000000000E+00   0.1686582565E-06   0.1686582565E-06   0.0000000000E+00   0.9452348591E-02   0.9452348591E-02   0.3432296961E+03  -0.8268537932E+01  -0.8268537932E+01  -0.4301523237E+00  -0.4301523237E+00  -0.2347363348E-10   0.3922311541E-01   0.3440087641E-01   0.3938304396E-01
   0.1040120424E+01   0.9244949481E-02   0.9244949481E-02   0.4873327042E-06   0.1624523324E-06   0.1624523324E-06   0.4011993679E-01   0.9244787028E-02   0.9244787028E-02   0.3554993046E+03   0.4100303715E+01   0.4100303715E+01  -0.4305756557E+00  -0.4305756557E+00   0.1342601342E-10   0.3895117160E-01   0.3416319073E-01   0.3920614748E-01
   0.1040120424E+01   0.9907550505E+00   0.9244949481E-02   0.4873327042E-06  -0.1624523324E-06   0.1624523324E-06   0.4011993679E-01  -0.9244787028E-02   0.9244787028E-02   0.3554993046E+03   0.4100303715E+01   0.4100303715E+01   0.4305756557E+00  -0.4305756557E+00  -0.6853551035E-15   0.3895117160E-01   0.3416319072E-01   0.3920614748E-01
   0.0000000000E+00   0.9905474828E+00   0.9452517249E-02   0.0000000000E+00  -0.1686582565E-06   0.1686582565E-06   0.0000000000E+00  -0.9452348591E-02   0.9452348591E-02   0.3432296960E+03  -0.8268537932E+01  -0.8268537932E+01   0.4301523236E+00  -0.4301523237E+00   0.2418592457E-13   0.3922311540E-01   0.3440087641E-01   0.3938304396E-01
   0.0000000000E+00   0.9452517249E-02   0.9905474828E+00   0.0000000000E+00   0.1686582565E-06  -0.1686582565E-06   0.0000000000E+00   0.9452348591E-02  -0.9452348591E-02   0.3432296960E+03  -0.8268537932E+01  -0.8268537932E+01  -0.4301523237E+00   0.4301523236E+00  -0.1117294667E-13   0.3922311540E-01   0.3440087641E-01   0.3938304396E-01
   0.1040120424E+01   0.9244949481E-02   0.9907550505E+00   0.4873327042E-06   0.1624523324E-06  -0.1624523324E-06   0.4011993679E-01   0.9244787028E-02  -0.9244787028E-02   0.3554993046E+03   0.4100303715E+01   0.4100303715E+01  -0.4305756557E+00   0.4305756557E+00  -0.5543907520E-15   0.3895117160E-01   0.3416319072E-01   0.3920614748E-01
   0.1040120424E+01   0.9907550505E+00   0.9907550505E+00   0.4873327043E-06  -0.1624523324E-06  -0.1624523324E-06   0.4011993679E-01  -0.9244787028E-02  -0.9244787028E-02   0.3554993046E+03   0.4100303715E+01   0.4100303715E+01   0.4305756557E+00   0.4305756557E+00  -0.1342725316E-10   0.3895117159E-01   0.3416319072E-01   0.3920614748E-01
   0.0000000000E+00   0.9905474828E+00   0.9905474828E+00   0.0000000000E+00  -0.1686582565E-06  -0.1686582565E-06   0.0000000000E+00  -0.9452348591E-02  -0.9452348591E-02   0.3432296960E+03  -0.8268537931E+01  -0.8268537931E+01   0.4301523236E+00   0.4301523236E+00   0.2348664646E-10   0.3922311540E-01   0.3440087641E-01   0.3938304396E-01
   0.2080000000E+01   0.9161744206E-02   0.9161744206E-02   0.1000000000E-05   0.1571292250E-06   0.1571292250E-06   0.7999900000E-01   0.9161587076E-02   0.9161587076E-02   0.3678797643E+03   0.1645181197E+02   0.1645181197E+02  -0.4311787438E+00  -0.4311787438E+00   0.4695574465E-10   0.3874478181E-01   0.3398110630E-01   0.3908558710E-01
   0.2080000000E+01   0.9908382558E+00   0.9161744206E-02   0.1000000000E-05  -0.1571292250E-06   0.1571292250E-06   0.7999900000E-01  -0.9161587076E-02   0.9161587076E-02   0.3678797643E+03   0.1645181197E+02   0.1645181197E+02   0.4311787438E+00  -0.4311787438E+00   0.1749408030E-14   0.3874478181E-01   0.3398110630E-01   0.3908558710E-01
   0.2080000000E+01   0.9161744206E-02   0.9908382558E+00   0.1000000000E-05   0.1571292250E-06  -0.1571292250E-06   0.7999900000E-01   0.9161587076E-02  -0.9161587076E-02   0.3678797643E+03   0.1645181197E+02   0.1645181197E+02  -0.4311787438E+00   0.4311787438E+00   0.1402763015E-13   0.3874478181E-01   0.3398110630E-01   0.3908558710E-01
   0.2080000000E+01   0.9908382558E+00   0.9908382558E+00   0.1000000000E-05  -0.1571292250E-06  -0.1571292250E-06   0.7999900000E-01  -0.9161587076E-02  -0.9161587076E-02   0.3678797643E+03   0.1645181197E+02   0.1645181197E+02   0.4311787437E+00   0.4311787437E+00  -0.4693996761E-10   0.3874478180E-01   0.3398110630E-01   0.3908558710E-01
     1     2     3     4     5     6     7     8
     2     9    10     3     6    11    12     7
 VARIABLES = X,Y,Z,DU1,DU2,DU3,U1,U2,U3,S11,S22,S33,S12,S13,S23,OMEGA,EP,E11
 ZONE, T="0.8100D+00" F=FEPOINT, I=   12 J=    2 ET=BRICK
   0.0000000000E+00   0.9519397801E-02   0.9519397801E-02   0.0000000000E+00  -0.8598532742E-08  -0.8598532742E-08   0.0000000000E+00   0.9519406400E-02   0.9519406400E-02   0.3499864076E+03  -0.1571697449E+01  -0.1571697449E+01   0.3343440960E+00   0.3343440960E+00  -0.2536348240E-11   0.3979755867E-01   0.3489897019E-01   0.3991531019E-01
   0.1040695216E+01   0.9400675681E-02   0.9400675681E-02   0.6017529872E-06   0.1087532764E-06   0.1087532764E-06   0.4069461454E-01   0.9400566927E-02   0.9400566927E-02   0.3449630093E+03  -0.6571695332E+01  -0.6571695332E+01   0.3374674658E+00   0.3374674658E+00  -0.1749124719E-10   0.3955872112E-01   0.3469442128E-01   0.3968669989E-01
   0.1040695216E+01   0.9905993243E+00   0.9400675681E-02   0.6017529872E-06  -0.1087532764E-06   0.1087532764E-06   0.4069461454E-01  -0.9400566927E-02   0.9400566927E-02   0.3449630093E+03  -0.6571695332E+01  -0.6571695332E+01  -0.3374674658E+00   0.3374674658E+00   0.1917007676E-13   0.3955872112E-01   0.3469442128E-01   0.3968669989E-01
   0.0000000000E+00   0.9904806022E+00   0.9519397801E-02   0.0000000000E+00   0.8598532741E-08  -0.8598532736E-08   0.0000000000E+00  -0.9519406399E-02   0.9519406400E-02   0.3499864075E+03  -0.1571697449E+01  -0.1571697449E+01  -0.3343440959E+00   0.3343440959E+00   0.2588892599E-13   0.3979755867E-01   0.3489897019E-01   0.3991531018E-01
   0.0000000000E+00   0.9519397801E-02   0.9904806022E+00   0.0000000000E+00  -0.8598532736E-08   0.8598532741E-08   0.0000000000E+00   0.9519406400E-02  -0.9519406399E-02   0.3499864075E+03  -0.1571697449E+01  -0.1571697449E+01   0.3343440959E+00  -0.3343440959E+00   0.3078346994E-14   0.3979755867E-01   0.3489897019E-01   0.3991531018E-01
   0.1040695216E+01   0.9400675681E-02   0.9905993243E+00   0.6017529872E-06   0.1087532764E-06  -0.1087532764E-06   0.4069461454E-01   0.9400566927E-02  -0.9400566927E-02   0.3449630093E+03  -0.6571695332E+01  -0.6571695332E+01   0.3374674658E+00  -0.3374674658E+00   0.1505931082E-13   0.3955872112E-01   0.3469442128E-01   0.3968669989E-01
   0.1040695216E+01   0.9905993243E+00   0.9905993243E+00   0.6017529872E-06  -0.1087532764E-06  -0.1087532764E-06   0.4069461454E-01  -0.9400566927E-02  -0.9400566927E-02   0.3449630093E+03  -0.6571695332E+01  -0.6571695332E+01  -0.3374674658E+00  -0.3374674658E+00   0.1752547658E-10   0.3955872112E-01   0.3469442128E-01   0.3968669989E-01
   0.0000000000E+00   0.9904806022E+00   0.9904806022E+00   0.0000000000E+00   0.8598532735E-08   0.8598532735E-08   0.0000000000E+00  -0.9519406399E-02  -0.9519406399E-02   0.3499864075E+03  -0.1571697449E+01  -0.1571697449E+01  -0.3343440959E+00  -0.3343440959E+00   0.2565315513E-11   0.3979755867E-01   0.3489897019E-01   0.3991531018E-01
   0.2081000000E+01   0.9407076728E-02   0.9407076728E-02   0.1000000000E-05   0.2266922859E-06   0.2266922859E-06   0.8099900000E-01   0.9406850036E-02   0.9406850036E-02   0.3399490942E+03  -0.1153681375E+02  -0.1153681375E+02   0.3405376346E+00   0.3405376346E+00  -0.3236826068E-10   0.3938756392E-01   0.3454776942E-01   0.3951477173E-01
   0.2081000000E+01   0.9905929233E+00   0.9407076728E-02   0.1000000000E-05  -0.2266922859E-06   0.2266922859E-06   0.8099900000E-01  -0.9406850035E-02   0.9406850036E-02   0.3399490942E+03  -0.1153681375E+02  -0.1153681375E+02  -0.3405376345E+00   0.3405376346E+00  -0.9649654264E-15   0.3938756392E-01   0.3454776942E-01   0.3951477173E-01
   0.2081000000E+01   0.9407076728E-02   0.9905929233E+00   0.1000000000E-05   0.2266922859E-06  -0.2266922859E-06   0.8099900000E-01   0.9406850036E-02  -0.9406850035E-02   0.3399490942E+03  -0.1153681375E+02  -0.1153681375E+02   0.3405376346E+00  -0.3405376345E+00  -0.1975819878E-14   0.3938756392E-01   0.3454776942E-01   0.3951477173E-01
   0.2081000000E+01   0.9905929233E+00   0.9905929233E+00   0.1000000000E-05  -0.2266922859E-06  -0.2266922859E-06   0.8099900000E-01  -0.9406850035E-02  -0.9406850035E-02   0.3399490942E+03  -0.1153681375E+02  -0.1153681375E+02  -0.3405376345E+00  -0.3405376345E+00   0.3236531989E-10   0.3938756392E-01   0.3454776941E-01   0.3951477173E-01
     1     2     3     4     5     6     7     8
     2     9    10     3     6    11    12     7
 VARIABLES = X,Y,Z,DU1,DU2,DU3,U1,U2,U3,S11,S22,S33,S12,S13,S23,OMEGA,EP,E11
 ZONE, T="0.8200D+00" F=FEPOINT, I=   12 J=    2 ET=BRICK
   0.0000000000E+00   0.9580105282E-02   0.9580105282E-02   0.0000000000E+00   0.1847397270E-06   0.1847397270E-06   0.0000000000E+00   0.9579920542E-02   0.9579920542E-02   0.3647820182E+03   0.1296833611E+02   0.1296833611E+02   0.4022552762E+00   0.4022552762E+00   0.3699648810E-10   0.4025914144E-01   0.3530898558E-01   0.4040072069E-01
   0.1041203579E+01   0.9475049335E-02   0.9475049335E-02   0.4065956045E-06   0.8561948607E-07   0.8561948607E-07   0.4120317269E-01   0.9474963715E-02   0.9474963715E-02   0.3572211781E+03   0.5460249328E+01   0.5460249328E+01   0.4059031103E+00   0.4059031103E+00   0.1503461979E-10   0.4003589086E-01   0.3511224287E-01   0.4016707851E-01
   0.1041203579E+01   0.9905249507E+00   0.9475049335E-02   0.4065956045E-06  -0.8561948606E-07   0.8561948607E-07   0.4120317269E-01  -0.9474963715E-02   0.9474963715E-02   0.3572211781E+03   0.5460249328E+01   0.5460249328E+01  -0.4059031103E+00   0.4059031103E+00   0.1107574180E-13   0.4003589086E-01   0.3511224287E-01   0.4016707850E-01
   0.0000000000E+00   0.9904198947E+00   0.9580105282E-02   0.0000000000E+00  -0.1847397270E-06   0.1847397270E-06   0.0000000000E+00  -0.9579920541E-02   0.9579920542E-02   0.3647820182E+03   0.1296833611E+02   0.1296833611E+02  -0.4022552761E+00   0.4022552762E+00  -0.1053478867E-13   0.4025914144E-01   0.3530898558E-01   0.4040072069E-01
   0.0000000000E+00   0.9580105282E-02   0.9904198947E+00   0.0000000000E+00   0.1847397270E-06  -0.1847397270E-06   0.0000000000E+00   0.9579920542E-02  -0.9579920541E-02   0.3647820182E+03   0.1296833611E+02   0.1296833611E+02   0.4022552762E+00  -0.4022552761E+00  -0.5058900446E-14   0.4025914144E-01   0.3530898558E-01   0.4040072069E-01
   0.1041203579E+01   0.9475049335E-02   0.9905249507E+00   0.4065956045E-06   0.8561948607E-07  -0.8561948606E-07   0.4120317269E-01   0.9474963715E-02  -0.9474963715E-02   0.3572211781E+03   0.5460249328E+01   0.5460249328E+01   0.4059031103E+00  -0.4059031103E+00   0.1510818790E-13   0.4003589086E-01   0.3511224287E-01   0.4016707850E-01
   0.1041203579E+01   0.9905249507E+00   0.9905249507E+00   0.4065956045E-06  -0.8561948606E-07  -0.8561948606E-07   0.4120317269E-01  -0.9474963715E-02  -0.9474963715E-02   0.3572211781E+03   0.5460249327E+01   0.5460249327E+01  -0.4059031102E+00  -0.4059031102E+00  -0.1500843586E-10   0.4003589086E-01   0.3511224287E-01   0.4016707850E-01
   0.0000000000E+00   0.9904198947E+00   0.9904198947E+00   0.0000000000E+00  -0.1847397270E-06  -0.1847397270E-06   0.0000000000E+00  -0.9579920541E-02  -0.9579920541E-02   0.3647820181E+03   0.1296833611E+02   0.1296833611E+02  -0.4022552761E+00  -0.4022552761E+00  -0.3701208178E-10   0.4025914144E-01   0.3530898558E-01   0.4040072069E-01
   0.2082000000E+01   0.9495475359E-02   0.9495475359E-02   0.1000000000E-05  -0.1338079480E-07  -0.1338079480E-07   0.8199900000E-01   0.9495488740E-02   0.9495488740E-02   0.3496811343E+03  -0.2018916827E+01  -0.2018916827E+01   0.4094979537E+00   0.4094979537E+00  -0.3475222629E-11   0.3988042229E-01   0.3497335073E-01   0.3999028856E-01
   0.2082000000E+01   0.9905045246E+00   0.9495475359E-02   0.1000000000E-05   0.1338079480E-07  -0.1338079480E-07   0.8199900000E-01  -0.9495488740E-02   0.9495488740E-02   0.3496811343E+03  -0.2018916827E+01  -0.2018916827E+01  -0.4094979536E+00   0.4094979537E+00  -0.4653560149E-14   0.3988042228E-01   0.3497335073E-01   0.3999028856E-01
   0.2082000000E+01   0.9495475359E-02   0.9905045246E+00   0.1000000000E-05  -0.1338079480E-07   0.1338079480E-07   0.8199900000E-01   0.9495488740E-02  -0.9495488740E-02   0.3496811343E+03  -0.2018916827E+01  -0.2018916827E+01   0.4094979537E+00  -0.4094979536E+00  -0.1551914698E-13   0.3988042228E-01   0.3497335073E-01   0.3999028856E-01
   0.2082000000E+01   0.9905045246E+00   0.9905045246E+00   0.1000000000E-05   0.1338079480E-07   0.1338079480E-07   0.8199900000E-01  -0.9495488740E-02  -0.9495488740E-02   0.3496811343E+03  -0.2018916827E+01  -0.2018916827E+01  -0.4094979536E+00  -0.4094979536E+00   0.3455049921E-11   0.3988042228E-01   0.3497335073E-01   0.3999028856E-01
     1     2     3     4     5     6     7     8
     2     9    10     3     6    11    12     7
 VARIABLES = X,Y,Z,DU1,DU2,DU3,U1,U2,U3,S11,S22,S33,S12,S13,S23,OMEGA,EP,E11
 ZONE, T="0.8300D+00" F=FEPOINT, I=   12 J=    2 ET=BRICK
   0.0000000000E+00   0.9819943150E-02   0.9819943150E-02   0.0000000000E+00   0.1937921547E-06   0.1937921547E-06   0.0000000000E+00   0.9819749358E-02   0.9819749358E-02   0.3383146484E+03  -0.1354334946E+02  -0.1354334946E+02  -0.4086753373E+00  -0.4086753373E+00  -0.3498502197E-10   0.4088022235E-01   0.3585401998E-01   0.4081533737E-01
   0.1041612418E+01   0.9617506314E-02   0.9617506314E-02   0.4790921671E-06   0.1729144857E-06   0.1729144857E-06   0.4161193932E-01   0.9617333399E-02   0.9617333399E-02   0.3504340486E+03  -0.1452143600E+01  -0.1452143600E+01  -0.4060421358E+00  -0.4060421358E+00  -0.7605914528E-11   0.4061664835E-01   0.3562474741E-01   0.4064729389E-01
   0.1041612418E+01   0.9903824937E+00   0.9617506314E-02   0.4790921671E-06  -0.1729144857E-06   0.1729144857E-06   0.4161193932E-01  -0.9617333399E-02   0.9617333399E-02   0.3504340486E+03  -0.1452143600E+01  -0.1452143600E+01   0.4060421358E+00  -0.4060421358E+00  -0.1334499771E-13   0.4061664835E-01   0.3562474741E-01   0.4064729389E-01
   0.0000000000E+00   0.9901800569E+00   0.9819943150E-02   0.0000000000E+00  -0.1937921547E-06   0.1937921547E-06   0.0000000000E+00  -0.9819749357E-02   0.9819749358E-02   0.3383146484E+03  -0.1354334946E+02  -0.1354334946E+02   0.4086753372E+00  -0.4086753372E+00  -0.5043874308E-13   0.4088022235E-01   0.3585401998E-01   0.4081533737E-01
   0.0000000000E+00   0.9819943150E-02   0.9901800569E+00   0.0000000000E+00   0.1937921547E-06  -0.1937921547E-06   0.0000000000E+00   0.9819749358E-02  -0.9819749357E-02   0.3383146484E+03  -0.1354334946E+02  -0.1354334946E+02  -0.4086753372E+00   0.4086753372E+00  -0.1614351228E-13   0.4088022235E-01   0.3585401998E-01   0.4081533737E-01
   0.1041612418E+01   0.9617506314E-02   0.9903824937E+00   0.4790921671E-06   0.1729144857E-06  -0.1729144857E-06   0.4161193932E-01   0.9617333399E-02  -0.9617333399E-02   0.3504340486E+03  -0.1452143600E+01  -0.1452143600E+01  -0.4060421358E+00   0.4060421358E+00   0.9870159454E-14   0.4061664835E-01   0.3562474741E-01   0.4064729389E-01
   0.1041612418E+01   0.9903824937E+00   0.9903824937E+00   0.4790921671E-06  -0.1729144857E-06  -0.1729144857E-06   0.4161193932E-01  -0.9617333399E-02  -0.9617333399E-02   0.3504340485E+03  -0.1452143600E+01  -0.1452143600E+01   0.4060421358E+00   0.4060421358E+00   0.7602439690E-11   0.4061664834E-01   0.3562474741E-01   0.4064729389E-01
   0.0000000000E+00   0.9901800569E+00   0.9901800569E+00   0.0000000000E+00  -0.1937921547E-06  -0.1937921547E-06   0.0000000000E+00  -0.9819749357E-02  -0.9819749357E-02   0.3383146484E+03  -0.1354334946E+02  -0.1354334946E+02   0.4086753372E+00   0.4086753372E+00   0.3491843971E-10   0.4088022235E-01   0.3585401998E-01   0.4081533737E-01
   0.2083000000E+01   0.9540428462E-02   0.9540428462E-02   0.1000000000E-05   0.1516992335E-06   0.1516992335E-06   0.8299900000E-01   0.9540276762E-02   0.9540276762E-02   0.3625856843E+03   0.1066134956E+02   0.1066134956E+02  -0.4034108613E+00  -0.4034108613E+00   0.2525790263E-10   0.4042093118E-01   0.3545307389E-01   0.4053608002E-01
   0.2083000000E+01   0.9904595715E+00   0.9540428462E-02   0.1000000000E-05  -0.1516992335E-06   0.1516992335E-06   0.8299900000E-01  -0.9540276762E-02   0.9540276762E-02   0.3625856843E+03   0.1066134956E+02   0.1066134956E+02   0.4034108612E+00  -0.4034108612E+00   0.3091994158E-14   0.4042093118E-01   0.3545307389E-01   0.4053608002E-01
   0.2083000000E+01   0.9540428462E-02   0.9904595715E+00   0.1000000000E-05   0.1516992335E-06  -0.1516992335E-06   0.8299900000E-01   0.9540276762E-02  -0.9540276762E-02   0.3625856843E+03   0.1066134956E+02   0.1066134956E+02  -0.4034108612E+00   0.4034108612E+00  -0.2199177800E-14   0.4042093118E-01   0.3545307389E-01   0.4053608002E-01
   0.2083000000E+01   0.9904595715E+00   0.9904595715E+00   0.1000000000E-05  -0.1516992335E-06  -0.1516992335E-06   0.8299900000E-01  -0.9540276762E-02  -0.9540276762E-02   0.3625856843E+03   0.1066134956E+02   0.1066134956E+02   0.4034108612E+00   0.4034108612E+00  -0.2525700981E-10   0.4042093118E-01   0.3545307388E-01   0.4053608002E-01
     1     2     3     4     5     6     7     8
     2     9    10     3     6    11    12     7
 VARIABLES = X,Y,Z,DU1,DU2,DU3,U1,U2,U3,S11,S22,S33,S12,S13,S23,OMEGA,EP,E11
 ZONE, T="0.8400D+00" F=FEPOINT, I=   12 J=    2 ET=BRICK
   0.0000000000E+00   0.9864165305E-02   0.9864165305E-02   0.0000000000E+00  -0.5151646158E-07  -0.5151646158E-07   0.0000000000E+00   0.9864216821E-02   0.9864216821E-02   0.3524867628E+03   0.3428113729E+00   0.3428113729E+00   0.2839354763E+00   0.2839354763E+00   0.4373055265E-11   0.4141116586E-01   0.3631178863E-01   0.4134592802E-01
   0.1042184257E+01   0.9741853804E-02   0.9741853804E-02   0.6093617810E-06   0.6874190365E-07   0.6874190365E-07   0.4218364785E-01   0.9741785062E-02   0.9741785062E-02   0.3487231882E+03  -0.3390814310E+01  -0.3390814310E+01   0.2848549071E+00   0.2848549071E+00  -0.1130536937E-10   0.4117488821E-01   0.3611105587E-01   0.4112729834E-01
   0.1042184257E+01   0.9902581462E+00   0.9741853804E-02   0.6093617810E-06  -0.6874190365E-07   0.6874190365E-07   0.4218364785E-01  -0.9741785062E-02   0.9741785062E-02   0.3487231882E+03  -0.3390814310E+01  -0.3390814310E+01  -0.2848549071E+00   0.2848549071E+00  -0.2362545574E-13   0.4117488821E-01   0.3611105587E-01   0.4112729834E-01
   0.0000000000E+00   0.9901358347E+00   0.9864165305E-02   0.0000000000E+00   0.5151646158E-07  -0.5151646157E-07   0.0000000000E+00  -0.9864216821E-02   0.9864216821E-02   0.3524867628E+03   0.3428113729E+00   0.3428113729E+00  -0.2839354763E+00   0.2839354762E+00  -0.4740791405E-13   0.4141116586E-01   0.3631178863E-01   0.4134592801E-01
   0.0000000000E+00   0.9864165305E-02   0.9901358347E+00   0.0000000000E+00  -0.5151646157E-07   0.5151646158E-07   0.0000000000E+00   0.9864216821E-02  -0.9864216821E-02   0.3524867628E+03   0.3428113729E+00   0.3428113729E+00   0.2839354762E+00  -0.2839354763E+00  -0.4036653542E-15   0.4141116586E-01   0.3631178863E-01   0.4134592801E-01
   0.1042184257E+01   0.9741853804E-02   0.9902581462E+00   0.6093617810E-06   0.6874190365E-07  -0.6874190365E-07   0.4218364785E-01   0.9741785062E-02  -0.9741785062E-02   0.3487231882E+03  -0.3390814310E+01  -0.3390814310E+01   0.2848549071E+00  -0.2848549071E+00   0.1887514888E-13   0.4117488821E-01   0.3611105587E-01   0.4112729834E-01
   0.1042184257E+01   0.9902581462E+00   0.9902581462E+00   0.6093617810E-06  -0.6874190365E-07  -0.6874190365E-07   0.4218364785E-01  -0.9741785062E-02  -0.9741785062E-02   0.3487231882E+03  -0.3390814310E+01  -0.3390814310E+01  -0.2848549071E+00  -0.2848549071E+00   0.1130061907E-10   0.4117488821E-01   0.3611105586E-01   0.4112729834E-01
   0.0000000000E+00   0.9901358347E+00   0.9901358347E+00   0.0000000000E+00   0.5151646157E-07   0.5151646157E-07   0.0000000000E+00  -0.9864216821E-02  -0.9864216821E-02   0.3524867628E+03   0.3428113729E+00   0.3428113729E+00  -0.2839354762E+00  -0.2839354762E+00  -0.4420866844E-11   0.4141116586E-01   0.3631178862E-01   0.4134592801E-01
   0.2084000000E+01   0.9744406767E-02   0.9744406767E-02   0.1000000000E-05   0.1883592515E-06   0.1883592515E-06   0.8399900000E-01   0.9744218408E-02   0.9744218408E-02   0.3449905293E+03  -0.7100249774E+01  -0.7100249774E+01   0.2857683329E+00   0.2857683329E+00  -0.2145804725E-10   0.4100567940E-01   0.3596773540E-01   0.4096527394E-01
   0.2084000000E+01   0.9902555932E+00   0.9744406767E-02   0.1000000000E-05  -0.1883592515E-06   0.1883592515E-06   0.8399900000E-01  -0.9744218407E-02   0.9744218408E-02   0.3449905293E+03  -0.7100249773E+01  -0.7100249773E+01  -0.2857683329E+00   0.2857683329E+00   0.1309186988E-13   0.4100567940E-01   0.3596773540E-01   0.4096527394E-01
   0.2084000000E+01   0.9744406767E-02   0.9902555932E+00   0.1000000000E-05   0.1883592515E-06  -0.1883592515E-06   0.8399900000E-01   0.9744218408E-02  -0.9744218407E-02   0.3449905293E+03  -0.7100249773E+01  -0.7100249773E+01   0.2857683329E+00  -0.2857683329E+00   0.2417868229E-13   0.4100567940E-01   0.3596773540E-01   0.4096527394E-01
   0.2084000000E+01   0.9902555932E+00   0.9902555932E+00   0.1000000000E-05  -0.1883592515E-06  -0.1883592515E-06   0.8399900000E-01  -0.9744218407E-02  -0.9744218407E-02   0.3449905293E+03  -0.7100249773E+01  -0.7100249773E+01  -0.2857683329E+00  -0.2857683329E+00   0.2149531780E-10   0.4100567939E-01   0.3596773540E-01   0.4096527394E-01
     1     2     3     4     5     6     7     8
     2     9    10     3     6    11    12     7
 VARIABLES = X,Y,Z,DU1,DU2,DU3,U1,U2,U3,S11,S22,S33,S12,S13,S23,OMEGA,EP,E11
 ZONE, T="0.8500D+00" F=FEPOINT, I=   12 J=    2 ET=BRICK
   0.0000000000E+00   0.9923714610E-02   0.9923714610E-02   0.0000000000E+00   0.2246829811E-06   0.2246829811E-06   0.0000000000E+00   0.9923489927E-02   0.9923489927E-02   0.3669881913E+03   0.1480066366E+02   0.1480066366E+02   0.4327713769E+00   0.4327713769E+00   0.3876938842E-10   0.4188591057E-01   0.3673578002E-01   0.4184191295E-01
   0.1042706683E+01   0.9824811748E-02   0.9824811748E-02   0.4194556627E-06   0.1337196725E-06   0.1337196725E-06   0.4270626378E-01   0.9824678028E-02   0.9824678028E-02   0.3584890294E+03   0.6345239359E+01   0.6345239359E+01   0.4302606651E+00   0.4302606651E+00   0.1623108107E-10   0.4166439219E-01   0.3654243621E-01   0.4160710627E-01
   0.1042706683E+01   0.9901751883E+00   0.9824811748E-02   0.4194556627E-06  -0.1337196724E-06   0.1337196725E-06   0.4270626378E-01  -0.9824678028E-02   0.9824678028E-02   0.3584890294E+03   0.6345239358E+01   0.6345239358E+01  -0.4302606652E+00   0.4302606651E+00  -0.2502094034E-13   0.4166439219E-01   0.3654243620E-01   0.4160710627E-01
   0.0000000000E+00   0.9900762854E+00   0.9923714610E-02   0.0000000000E+00  -0.2246829811E-06   0.2246829811E-06   0.0000000000E+00  -0.9923489926E-02   0.9923489927E-02   0.3669881913E+03   0.1480066366E+02   0.1480066366E+02  -0.4327713768E+00   0.4327713768E+00  -0.1037007945E-13   0.4188591056E-01   0.3673578002E-01   0.4184191295E-01
   0.0000000000E+00   0.9923714610E-02   0.9900762854E+00   0.0000000000E+00   0.2246829811E-06  -0.2246829811E-06   0.0000000000E+00   0.9923489927E-02  -0.9923489926E-02   0.3669881913E+03   0.1480066366E+02   0.1480066366E+02   0.4327713768E+00  -0.4327713768E+00   0.2258015793E-13   0.4188591056E-01   0.3673578002E-01   0.4184191295E-01
   0.1042706683E+01   0.9824811748E-02   0.9901751883E+00   0.4194556627E-06   0.1337196725E-06  -0.1337196724E-06   0.4270626378E-01   0.9824678028E-02  -0.9824678028E-02   0.3584890294E+03   0.6345239358E+01   0.6345239358E+01   0.4302606651E+00  -0.4302606652E+00   0.2450934983E-13   0.4166439219E-01   0.3654243620E-01   0.4160710627E-01
   0.1042706683E+01   0.9901751883E+00   0.9901751883E+00   0.4194556627E-06  -0.1337196724E-06  -0.1337196724E-06   0.4270626378E-01  -0.9824678028E-02  -0.9824678028E-02   0.3584890293E+03   0.6345239358E+01   0.6345239358E+01  -0.4302606651E+00  -0.4302606651E+00  -0.1623159266E-10   0.4166439219E-01   0.3654243620E-01   0.4160710627E-01
   0.0000000000E+00   0.9900762854E+00   0.9900762854E+00   0.0000000000E+00  -0.2246829811E-06  -0.2246829811E-06   0.0000000000E+00  -0.9923489926E-02  -0.9923489926E-02   0.3669881913E+03   0.1480066366E+02   0.1480066366E+02  -0.4327713768E+00  -0.4327713768E+00  -0.3875717834E-10   0.4188591056E-01   0.3673578002E-01   0.4184191295E-01
   0.2085000000E+01   0.9850042793E-02   0.9850042793E-02   0.1000000000E-05   0.4197340055E-07   0.4197340055E-07   0.8499900000E-01   0.9850000820E-02   0.9850000820E-02   0.3501140133E+03  -0.2133364943E+01  -0.2133364943E+01   0.4279516378E+00   0.4279516378E+00  -0.2234680326E-11   0.4150774477E-01   0.3640439563E-01   0.4142858118E-01
   0.2085000000E+01   0.9901499572E+00   0.9850042793E-02   0.1000000000E-05  -0.4197340054E-07   0.4197340055E-07   0.8499900000E-01  -0.9850000819E-02   0.9850000820E-02   0.3501140133E+03  -0.2133364943E+01  -0.2133364943E+01  -0.4279516378E+00   0.4279516378E+00   0.9937737659E-14   0.4150774477E-01   0.3640439563E-01   0.4142858118E-01
   0.2085000000E+01   0.9850042793E-02   0.9901499572E+00   0.1000000000E-05   0.4197340055E-07  -0.4197340054E-07   0.8499900000E-01   0.9850000820E-02  -0.9850000819E-02   0.3501140133E+03  -0.2133364943E+01  -0.2133364943E+01   0.4279516378E+00  -0.4279516378E+00   0.3893613526E-13   0.4150774477E-01   0.3640439563E-01   0.4142858118E-01
   0.2085000000E+01   0.9901499572E+00   0.9901499572E+00   0.1000000000E-05  -0.4197340055E-07  -0.4197340055E-07   0.8499900000E-01  -0.9850000819E-02  -0.9850000819E-02   0.3501140133E+03  -0.2133364943E+01  -0.2133364943E+01  -0.4279516378E+00  -0.4279516378E+00   0.2283554199E-11   0.4150774477E-01   0.3640439563E-01   0.4142858118E-01
     1     2     3     4     5     6     7     8
     2     9    10     3     6    11    12     7
 VARIABLES = X,Y,Z,DU1,DU2,DU3,U1,U2,U3,S11,S22,S33,S12,S13,S23,OMEGA,EP,E11
 ZONE, T="0.8600D+00" F=FEPOINT, I=   12 J=    2 ET=BRICK
   0.0000000000E+00   0.1018667735E-01   0.1018667735E-01   0.0000000000E+00   0.1778861622E-06   0.1778861622E-06   0.0000000000E+00   0.1018649946E-01   0.1018649946E-01   0.3348547678E+03  -0.1767453571E+02  -0.1767453571E+02  -0.4177333690E+00  -0.4177333690E+00  -0.4995475707E-10   0.4253998771E-01   0.3730785989E-01   0.4225841394E-01
   0.1043117033E+01   0.9986115670E-02   0.9986115670E-02   0.4710603666E-06   0.1424994833E-06   0.1424994833E-06   0.4311656148E-01   0.9985973171E-02   0.9985973171E-02   0.3464383397E+03  -0.5920798257E+01  -0.5920798257E+01  -0.4227955157E+00  -0.4227955157E+00  -0.1692977380E-10   0.4227595400E-01   0.3707943062E-01   0.4208670232E-01
   0.1043117033E+01   0.9900138843E+00   0.9986115670E-02   0.4710603666E-06  -0.1424994833E-06   0.1424994833E-06   0.4311656148E-01  -0.9985973171E-02   0.9985973171E-02   0.3464383397E+03  -0.5920798257E+01  -0.5920798257E+01   0.4227955157E+00  -0.4227955157E+00  -0.2630488415E-13   0.4227595400E-01   0.3707943062E-01   0.4208670232E-01
   0.0000000000E+00   0.9898133227E+00   0.1018667735E-01   0.0000000000E+00  -0.1778861622E-06   0.1778861622E-06   0.0000000000E+00  -0.1018649946E-01   0.1018649946E-01   0.3348547678E+03  -0.1767453571E+02  -0.1767453571E+02   0.4177333690E+00  -0.4177333690E+00   0.9971769084E-14   0.4253998771E-01   0.3730785989E-01   0.4225841394E-01
   0.0000000000E+00   0.1018667735E-01   0.9898133227E+00   0.0000000000E+00   0.1778861622E-06  -0.1778861622E-06   0.0000000000E+00   0.1018649946E-01  -0.1018649946E-01   0.3348547678E+03  -0.1767453571E+02  -0.1767453571E+02  -0.4177333690E+00   0.4177333690E+00   0.2268569419E-13   0.4253998771E-01   0.3730785989E-01   0.4225841394E-01
   0.1043117033E+01   0.9986115670E-02   0.9900138843E+00   0.4710603666E-06   0.1424994833E-06  -0.1424994833E-06   0.4311656148E-01   0.9985973171E-02  -0.9985973171E-02   0.3464383397E+03  -0.5920798257E+01  -0.5920798257E+01  -0.4227955157E+00   0.4227955157E+00   0.2078048023E-13   0.4227595400E-01   0.3707943062E-01   0.4208670232E-01
   0.1043117033E+01   0.9900138843E+00   0.9900138843E+00   0.4710603666E-06  -0.1424994833E-06  -0.1424994833E-06   0.4311656148E-01  -0.9985973171E-02  -0.9985973171E-02   0.3464383397E+03  -0.5920798256E+01  -0.5920798256E+01   0.4227955157E+00   0.4227955157E+00   0.1692424940E-10   0.4227595400E-01   0.3707943062E-01   0.4208670231E-01
   0.0000000000E+00   0.9898133227E+00   0.9898133227E+00   0.0000000000E+00  -0.1778861622E-06  -0.1778861622E-06   0.0000000000E+00  -0.1018649946E-01  -0.1018649946E-01   0.3348547678E+03  -0.1767453571E+02  -0.1767453571E+02   0.4177333689E+00   0.4177333689E+00   0.4998741453E-10   0.4253998771E-01   0.3730785988E-01   0.4225841393E-01
   0.2086000000E+01   0.9908931708E-02   0.9908931708E-02   0.1000000000E-05   0.1064398181E-06   0.1064398181E-06   0.8599900000E-01   0.9908825268E-02   0.9908825268E-02   0.3580355525E+03   0.5864179507E+01   0.5864179507E+01  -0.4279042903E+00  -0.4279042903E+00   0.1749828886E-10   0.4207907204E-01   0.3690808197E-01   0.4197096438E-01
   0.2086000000E+01   0.9900910683E+00   0.9908931708E-02   0.1000000000E-05  -0.1064398181E-06   0.1064398181E-06   0.8599900000E-01  -0.9908825268E-02   0.9908825268E-02   0.3580355525E+03   0.5864179507E+01   0.5864179507E+01   0.4279042903E+00  -0.4279042903E+00  -0.1270199410E-13   0.4207907204E-01   0.3690808197E-01   0.4197096437E-01
   0.2086000000E+01   0.9908931708E-02   0.9900910683E+00   0.1000000000E-05   0.1064398181E-06  -0.1064398181E-06   0.8599900000E-01   0.9908825268E-02  -0.9908825268E-02   0.3580355525E+03   0.5864179507E+01   0.5864179507E+01  -0.4279042903E+00   0.4279042903E+00   0.2537463450E-13   0.4207907204E-01   0.3690808197E-01   0.4197096437E-01
   0.2086000000E+01   0.9900910683E+00   0.9900910683E+00   0.1000000000E-05  -0.1064398181E-06  -0.1064398181E-06   0.8599900000E-01  -0.9908825268E-02  -0.9908825268E-02   0.3580355525E+03   0.5864179506E+01   0.5864179506E+01   0.4279042903E+00   0.4279042903E+00  -0.1748561622E-10   0.4207907204E-01   0.3690808196E-01   0.4197096437E-01
     1     2     3     4     5     6     7     8
     2     9    10     3     6    11    12     7
 VARIABLES = X,Y,Z,DU1,DU2,DU3,U1,U2,U3,S11,S22,S33,S12,S13,S23,OMEGA,EP,E11
 ZONE, T="0.8700D+00" F=FEPOINT, I=   12 J=    2 ET=BRICK
   0.0000000000E+00   0.1020428910E-01   0.1020428910E-01   0.0000000000E+00  -0.5680114182E-07  -0.5680114182E-07   0.0000000000E+00   0.1020434590E-01   0.1020434590E-01   0.3573754752E+03   0.4761279537E+01   0.4761279537E+01   0.1943377540E+00   0.1943377540E+00   0.1356177164E-10   0.4302225921E-01   0.3772377906E-01   0.4278639837E-01
   0.1043684664E+01   0.1007397393E-01   0.1007397393E-01   0.6147963785E-06   0.6452541216E-07   0.6452541216E-07   0.4368404893E-01   0.1007390941E-01   0.1007390941E-01   0.3548429989E+03   0.2295571999E+01   0.2295571999E+01   0.1880131857E+00   0.1880131857E+00   0.9010240210E-11   0.4277594435E-01   0.3751554965E-01   0.4256602075E-01
   0.1043684664E+01   0.9899260261E+00   0.1007397393E-01   0.6147963785E-06  -0.6452541216E-07   0.6452541217E-07   0.4368404893E-01  -0.1007390941E-01   0.1007390941E-01   0.3548429989E+03   0.2295571999E+01   0.2295571999E+01  -0.1880131857E+00   0.1880131857E+00  -0.3110267680E-13   0.4277594435E-01   0.3751554965E-01   0.4256602075E-01
   0.0000000000E+00   0.9897957109E+00   0.1020428910E-01   0.0000000000E+00   0.5680114182E-07  -0.5680114181E-07   0.0000000000E+00  -0.1020434590E-01   0.1020434590E-01   0.3573754752E+03   0.4761279537E+01   0.4761279537E+01  -0.1943377540E+00   0.1943377540E+00  -0.3207509666E-14   0.4302225921E-01   0.3772377906E-01   0.4278639837E-01
   0.0000000000E+00   0.1020428910E-01   0.9897957109E+00   0.0000000000E+00  -0.5680114181E-07   0.5680114182E-07   0.0000000000E+00   0.1020434590E-01  -0.1020434590E-01   0.3573754752E+03   0.4761279537E+01   0.4761279537E+01   0.1943377540E+00  -0.1943377540E+00  -0.2434333930E-14   0.4302225921E-01   0.3772377906E-01   0.4278639837E-01
   0.1043684664E+01   0.1007397393E-01   0.9899260261E+00   0.6147963785E-06   0.6452541217E-07  -0.6452541216E-07   0.4368404893E-01   0.1007390941E-01  -0.1007390941E-01   0.3548429989E+03   0.2295571999E+01   0.2295571999E+01   0.1880131857E+00  -0.1880131857E+00   0.8062241385E-14   0.4277594435E-01   0.3751554965E-01   0.4256602075E-01
   0.1043684664E+01   0.9899260261E+00   0.9899260261E+00   0.6147963785E-06  -0.6452541216E-07  -0.6452541216E-07   0.4368404893E-01  -0.1007390941E-01  -0.1007390941E-01   0.3548429989E+03   0.2295571999E+01   0.2295571999E+01  -0.1880131857E+00  -0.1880131857E+00  -0.9033280645E-11   0.4277594435E-01   0.3751554965E-01   0.4256602075E-01
   0.0000000000E+00   0.9897957109E+00   0.9897957109E+00   0.0000000000E+00   0.5680114181E-07   0.5680114181E-07   0.0000000000E+00  -0.1020434590E-01  -0.1020434590E-01   0.3573754752E+03   0.4761279536E+01   0.4761279536E+01  -0.1943377540E+00  -0.1943377540E+00  -0.1356741349E-10   0.4302225920E-01   0.3772377906E-01   0.4278639837E-01
   0.2087000000E+01   0.1006652055E-01   0.1006652055E-01   0.1000000000E-05   0.1854929794E-06   0.1854929794E-06   0.8699900000E-01   0.1006633506E-01   0.1006633506E-01   0.3523261912E+03  -0.1387461215E+00  -0.1387461215E+00   0.1817003167E+00   0.1817003167E+00   0.2815773871E-11   0.4259598453E-01   0.3736413605E-01   0.4240137923E-01
   0.2087000000E+01   0.9899334794E+00   0.1006652055E-01   0.1000000000E-05  -0.1854929794E-06   0.1854929794E-06   0.8699900000E-01  -0.1006633506E-01   0.1006633506E-01   0.3523261912E+03  -0.1387461215E+00  -0.1387461215E+00  -0.1817003167E+00   0.1817003167E+00  -0.3680610970E-13   0.4259598452E-01   0.3736413605E-01   0.4240137923E-01
   0.2087000000E+01   0.1006652055E-01   0.9899334794E+00   0.1000000000E-05   0.1854929794E-06  -0.1854929794E-06   0.8699900000E-01   0.1006633506E-01  -0.1006633506E-01   0.3523261912E+03  -0.1387461215E+00  -0.1387461215E+00   0.1817003167E+00  -0.1817003167E+00  -0.8005902036E-14   0.4259598452E-01   0.3736413605E-01   0.4240137923E-01
   0.2087000000E+01   0.9899334794E+00   0.9899334794E+00   0.1000000000E-05  -0.1854929794E-06  -0.1854929794E-06   0.8699900000E-01  -0.1006633506E-01  -0.1006633506E-01   0.3523261912E+03  -0.1387461215E+00  -0.1387461215E+00  -0.1817003167E+00  -0.1817003167E+00  -0.2860585882E-11   0.4259598452E-01   0.3736413605E-01   0.4240137923E-01
     1     2     3     4     5     6     7     8
     2     9    10     3     6    11    12     7
 VARIABLES = X,Y,Z,DU1,DU2,DU3,U1,U2,U3,S11,S22,S33,S12,S13,S23,OMEGA,EP,E11
 ZONE, T="0.8800D+00" F=FEPOINT, I=   12 J=    2 ET=BRICK
   0.0000000000E+00   0.1028854563E-01   0.1028854563E-01   0.0000000000E+00   0.2513595863E-06   0.2513595863E-06   0.0000000000E+00   0.1028829427E-01   0.1028829427E-01   0.3645181963E+03   0.1179604755E+02   0.1179604755E+02   0.4184032948E+00   0.4184032948E+00   0.2700757802E-10   0.4354629772E-01   0.3819262979E-01   0.4329159326E-01
   0.1044219594E+01   0.1019061980E-01   0.1019061980E-01   0.4317334967E-06   0.1692523792E-06   0.1692523792E-06   0.4421916266E-01   0.1019045055E-01   0.1019045055E-01   0.3551839307E+03   0.2474084814E+01   0.2474084814E+01   0.4117621705E+00   0.4117621705E+00   0.7986433413E-11   0.4331458483E-01   0.3799140173E-01   0.4304507543E-01
   0.1044219594E+01   0.9898093802E+00   0.1019061980E-01   0.4317334967E-06  -0.1692523792E-06   0.1692523792E-06   0.4421916266E-01  -0.1019045055E-01   0.1019045055E-01   0.3551839307E+03   0.2474084813E+01   0.2474084813E+01  -0.4117621705E+00   0.4117621705E+00  -0.1214069367E-13   0.4331458483E-01   0.3799140173E-01   0.4304507542E-01
   0.0000000000E+00   0.9897114544E+00   0.1028854563E-01   0.0000000000E+00  -0.2513595863E-06   0.2513595863E-06   0.0000000000E+00  -0.1028829427E-01   0.1028829427E-01   0.3645181963E+03   0.1179604755E+02   0.1179604755E+02  -0.4184032947E+00   0.4184032947E+00  -0.1266405372E-13   0.4354629772E-01   0.3819262979E-01   0.4329159325E-01
   0.0000000000E+00   0.1028854563E-01   0.9897114544E+00   0.0000000000E+00   0.2513595863E-06  -0.2513595863E-06   0.0000000000E+00   0.1028829427E-01  -0.1028829427E-01   0.3645181963E+03   0.1179604755E+02   0.1179604755E+02   0.4184032947E+00  -0.4184032947E+00  -0.2067382492E-13   0.4354629772E-01   0.3819262979E-01   0.4329159325E-01
   0.1044219594E+01   0.1019061980E-01   0.9898093802E+00   0.4317334967E-06   0.1692523792E-06  -0.1692523792E-06   0.4421916266E-01   0.1019045055E-01  -0.1019045055E-01   0.3551839307E+03   0.2474084813E+01   0.2474084813E+01   0.4117621705E+00  -0.4117621705E+00   0.7536572538E-14   0.4331458483E-01   0.3799140173E-01   0.4304507542E-01
   0.1044219594E+01   0.9898093802E+00   0.9898093802E+00   0.4317334967E-06  -0.1692523792E-06  -0.1692523792E-06   0.4421916266E-01  -0.1019045055E-01  -0.1019045055E-01   0.3551839307E+03   0.2474084813E+01   0.2474084813E+01  -0.4117621705E+00  -0.4117621705E+00  -0.7991037534E-11   0.4331458483E-01   0.3799140173E-01   0.4304507542E-01
   0.0000000000E+00   0.9897114544E+00   0.9897114544E+00   0.0000000000E+00  -0.2513595863E-06  -0.2513595863E-06   0.0000000000E+00  -0.1028829427E-01  -0.1028829427E-01   0.3645181963E+03   0.1179604755E+02   0.1179604755E+02  -0.4184032947E+00  -0.4184032947E+00  -0.2704091590E-10   0.4354629771E-01   0.3819262979E-01   0.4329159325E-01
   0.2088000000E+01   0.1021535921E-01   0.1021535921E-01   0.1000000000E-05   0.8709738809E-07   0.8709738809E-07   0.8799900000E-01   0.1021527211E-01   0.1021527211E-01   0.3458372842E+03  -0.6803266504E+01  -0.6803266504E+01   0.4051264264E+00   0.4051264264E+00  -0.1474655574E-10   0.4314994856E-01   0.3784743188E-01   0.4285421445E-01
   0.2088000000E+01   0.9897846408E+00   0.1021535921E-01   0.1000000000E-05  -0.8709738809E-07   0.8709738809E-07   0.8799900000E-01  -0.1021527211E-01   0.1021527211E-01   0.3458372842E+03  -0.6803266504E+01  -0.6803266504E+01  -0.4051264264E+00   0.4051264264E+00  -0.1419890225E-13   0.4314994856E-01   0.3784743187E-01   0.4285421445E-01
   0.2088000000E+01   0.1021535921E-01   0.9897846408E+00   0.1000000000E-05   0.8709738809E-07  -0.8709738809E-07   0.8799900000E-01   0.1021527211E-01  -0.1021527211E-01   0.3458372842E+03  -0.6803266504E+01  -0.6803266504E+01   0.4051264264E+00  -0.4051264264E+00  -0.1703626204E-13   0.4314994856E-01   0.3784743187E-01   0.4285421445E-01
   0.2088000000E+01   0.9897846408E+00   0.9897846408E+00   0.1000000000E-05  -0.8709738809E-07  -0.8709738809E-07   0.8799900000E-01  -0.1021527211E-01  -0.1021527211E-01   0.3458372842E+03  -0.6803266504E+01  -0.6803266504E+01  -0.4051264263E+00  -0.4051264263E+00   0.1471532057E-10   0.4314994856E-01   0.3784743187E-01   0.4285421445E-01
     1     2     3     4     5     6     7     8
     2     9    10     3     6    11    12     7
 VARIABLES = X,Y,Z,DU1,DU2,DU3,U1,U2,U3,S11,S22,S33,S12,S13,S23,OMEGA,EP,E11
 ZONE, T="0.8900D+00" F=FEPOINT, I=   12 J=    2 ET=BRICK
   0.0000000000E+00   0.1054052443E-01   0.1054052443E-01   0.0000000000E+00   0.1424008339E-06   0.1424008339E-06   0.0000000000E+00   0.1054038202E-01   0.1054038202E-01   0.3356920484E+03  -0.1712428452E+02  -0.1712428452E+02  -0.4575104357E+00  -0.4575104357E+00  -0.4871378630E-10   0.4418790663E-01   0.3875189992E-01   0.4370925868E-01
   0.1044630990E+01   0.1033785072E-01   0.1033785072E-01   0.4618596615E-06   0.9327273423E-07   0.9327273423E-07   0.4463052810E-01   0.1033775745E-01   0.1033775745E-01   0.3468300773E+03  -0.5978834612E+01  -0.5978834612E+01  -0.4633691840E+00  -0.4633691840E+00  -0.1520280235E-10   0.4390893665E-01   0.3851047448E-01   0.4352388788E-01
   0.1044630990E+01   0.9896621493E+00   0.1033785072E-01   0.4618596615E-06  -0.9327273422E-07   0.9327273423E-07   0.4463052810E-01  -0.1033775745E-01   0.1033775745E-01   0.3468300773E+03  -0.5978834612E+01  -0.5978834612E+01   0.4633691840E+00  -0.4633691840E+00   0.9521960259E-14   0.4390893665E-01   0.3851047448E-01   0.4352388788E-01
   0.0000000000E+00   0.9894594756E+00   0.1054052443E-01   0.0000000000E+00  -0.1424008339E-06   0.1424008339E-06   0.0000000000E+00  -0.1054038202E-01   0.1054038202E-01   0.3356920483E+03  -0.1712428452E+02  -0.1712428452E+02   0.4575104357E+00  -0.4575104357E+00  -0.1604604950E-13   0.4418790662E-01   0.3875189992E-01   0.4370925867E-01
   0.0000000000E+00   0.1054052443E-01   0.9894594756E+00   0.0000000000E+00   0.1424008339E-06  -0.1424008339E-06   0.0000000000E+00   0.1054038202E-01  -0.1054038202E-01   0.3356920483E+03  -0.1712428452E+02  -0.1712428452E+02  -0.4575104357E+00   0.4575104357E+00  -0.2643208446E-13   0.4418790662E-01   0.3875189992E-01   0.4370925867E-01
   0.1044630990E+01   0.1033785072E-01   0.9896621493E+00   0.4618596615E-06   0.9327273423E-07  -0.9327273422E-07   0.4463052810E-01   0.1033775745E-01  -0.1033775745E-01   0.3468300773E+03  -0.5978834612E+01  -0.5978834612E+01  -0.4633691840E+00   0.4633691840E+00   0.1044222092E-13   0.4390893665E-01   0.3851047448E-01   0.4352388788E-01
   0.1044630990E+01   0.9896621493E+00   0.9896621493E+00   0.4618596615E-06  -0.9327273422E-07  -0.9327273422E-07   0.4463052810E-01  -0.1033775745E-01  -0.1033775745E-01   0.3468300773E+03  -0.5978834612E+01  -0.5978834612E+01   0.4633691840E+00   0.4633691840E+00   0.1522276653E-10   0.4390893665E-01   0.3851047447E-01   0.4352388788E-01
   0.0000000000E+00   0.9894594756E+00   0.9894594756E+00   0.0000000000E+00  -0.1424008339E-06  -0.1424008339E-06   0.0000000000E+00  -0.1054038202E-01  -0.1054038202E-01   0.3356920483E+03  -0.1712428452E+02  -0.1712428452E+02   0.4575104357E+00   0.4575104357E+00   0.4867130816E-10   0.4418790662E-01   0.3875189992E-01   0.4370925867E-01
   0.2089000000E+01   0.1025793430E-01   0.1025793430E-01   0.1000000000E-05   0.4438836367E-07   0.4438836367E-07   0.8899900000E-01   0.1025788991E-01   0.1025788991E-01   0.3579780076E+03   0.5199738298E+01   0.5199738298E+01  -0.4692717182E+00  -0.4692717182E+00   0.1401392150E-10   0.4369687238E-01   0.3832595647E-01   0.4339424960E-01
   0.2089000000E+01   0.9897420657E+00   0.1025793430E-01   0.1000000000E-05  -0.4438836366E-07   0.4438836367E-07   0.8899900000E-01  -0.1025788991E-01   0.1025788991E-01   0.3579780076E+03   0.5199738297E+01   0.5199738297E+01   0.4692717182E+00  -0.4692717182E+00   0.3880722914E-13   0.4369687238E-01   0.3832595646E-01   0.4339424960E-01
   0.2089000000E+01   0.1025793430E-01   0.9897420657E+00   0.1000000000E-05   0.4438836367E-07  -0.4438836366E-07   0.8899900000E-01   0.1025788991E-01  -0.1025788991E-01   0.3579780076E+03   0.5199738297E+01   0.5199738297E+01  -0.4692717182E+00   0.4692717182E+00   0.1932645496E-14   0.4369687238E-01   0.3832595646E-01   0.4339424960E-01
   0.2089000000E+01   0.9897420657E+00   0.9897420657E+00   0.1000000000E-05  -0.4438836367E-07  -0.4438836367E-07   0.8899900000E-01  -0.1025788991E-01  -0.1025788991E-01   0.3579780076E+03   0.5199738297E+01   0.5199738297E+01   0.4692717182E+00   0.4692717182E+00  -0.1397318163E-10   0.4369687238E-01   0.3832595646E-01   0.4339424959E-01
     1     2     3     4     5     6     7     8
     2     9    10     3     6    11    12     7
 VARIABLES = X,Y,Z,DU1,DU2,DU3,U1,U2,U3,S11,S22,S33,S12,S13,S23,OMEGA,EP,E11
 ZONE, T="0.9000D+00" F=FEPOINT, I=   12 J=    2 ET=BRICK
   0.0000000000E+00   0.1055369138E-01   0.1055369138E-01   0.0000000000E+00  -0.2209080148E-07  -0.2209080148E-07   0.0000000000E+00   0.1055371347E-01   0.1055371347E-01   0.3604459759E+03   0.7468281497E+01   0.7468281497E+01   0.7382029230E-01   0.7382029230E-01   0.2216446564E-10   0.4464805483E-01   0.3915118205E-01   0.4423230501E-01
   0.1045191892E+01   0.1041109799E-01   0.1041109799E-01   0.6168239433E-06   0.9950870772E-07   0.9950870772E-07   0.4519127470E-01   0.1041099848E-01   0.1041099848E-01   0.3591245564E+03   0.6271368007E+01   0.6271368007E+01   0.7059606147E-01   0.7059606147E-01   0.1837371416E-10   0.4438472259E-01   0.3892797357E-01   0.4400241841E-01
   0.1045191892E+01   0.9895889020E+00   0.1041109799E-01   0.6168239433E-06  -0.9950870772E-07   0.9950870772E-07   0.4519127470E-01  -0.1041099848E-01   0.1041099848E-01   0.3591245564E+03   0.6271368006E+01   0.6271368006E+01  -0.7059606149E-01   0.7059606146E-01   0.6210246656E-14   0.4438472259E-01   0.3892797357E-01   0.4400241841E-01
   0.0000000000E+00   0.9894463086E+00   0.1055369138E-01   0.0000000000E+00   0.2209080148E-07  -0.2209080147E-07   0.0000000000E+00  -0.1055371347E-01   0.1055371347E-01   0.3604459759E+03   0.7468281497E+01   0.7468281496E+01  -0.7382029230E-01   0.7382029230E-01  -0.1431954346E-13   0.4464805483E-01   0.3915118205E-01   0.4423230501E-01
   0.0000000000E+00   0.1055369138E-01   0.9894463086E+00   0.0000000000E+00  -0.2209080147E-07   0.2209080148E-07   0.0000000000E+00   0.1055371347E-01  -0.1055371347E-01   0.3604459759E+03   0.7468281496E+01   0.7468281497E+01   0.7382029230E-01  -0.7382029230E-01  -0.1441390907E-13   0.4464805483E-01   0.3915118205E-01   0.4423230501E-01
   0.1045191892E+01   0.1041109799E-01   0.9895889020E+00   0.6168239433E-06   0.9950870772E-07  -0.9950870772E-07   0.4519127470E-01   0.1041099848E-01  -0.1041099848E-01   0.3591245564E+03   0.6271368006E+01   0.6271368006E+01   0.7059606146E-01  -0.7059606149E-01   0.3424740223E-14   0.4438472259E-01   0.3892797357E-01   0.4400241841E-01
   0.1045191892E+01   0.9895889020E+00   0.9895889020E+00   0.6168239433E-06  -0.9950870772E-07  -0.9950870772E-07   0.4519127470E-01  -0.1041099848E-01  -0.1041099848E-01   0.3591245564E+03   0.6271368006E+01   0.6271368006E+01  -0.7059606148E-01  -0.7059606148E-01  -0.1836407917E-10   0.4438472259E-01   0.3892797357E-01   0.4400241841E-01
   0.0000000000E+00   0.9894463086E+00   0.9894463086E+00   0.0000000000E+00   0.2209080147E-07   0.2209080147E-07   0.0000000000E+00  -0.1055371347E-01  -0.1055371347E-01   0.3604459759E+03   0.7468281496E+01   0.7468281496E+01  -0.7382029230E-01  -0.7382029230E-01  -0.2219319909E-10   0.4464805482E-01   0.3915118205E-01   0.4423230501E-01
   0.2090000000E+01   0.1039163260E-01   0.1039163260E-01   0.1000000000E-05   0.2215626801E-06   0.2215626801E-06   0.8999900000E-01   0.1039141104E-01   0.1039141104E-01   0.3579347935E+03   0.5047960951E+01   0.5047960951E+01   0.6740376816E-01   0.6740376816E-01   0.1089679108E-10   0.4418540689E-01   0.3875954125E-01   0.4382842847E-01
   0.2090000000E+01   0.9896083674E+00   0.1039163260E-01   0.1000000000E-05  -0.2215626801E-06   0.2215626801E-06   0.8999900000E-01  -0.1039141104E-01   0.1039141104E-01   0.3579347935E+03   0.5047960950E+01   0.5047960950E+01  -0.6740376816E-01   0.6740376815E-01   0.5277320370E-13   0.4418540688E-01   0.3875954125E-01   0.4382842847E-01
   0.2090000000E+01   0.1039163260E-01   0.9896083674E+00   0.1000000000E-05   0.2215626801E-06  -0.2215626801E-06   0.8999900000E-01   0.1039141104E-01  -0.1039141104E-01   0.3579347935E+03   0.5047960950E+01   0.5047960950E+01   0.6740376815E-01  -0.6740376816E-01   0.3580921360E-14   0.4418540688E-01   0.3875954125E-01   0.4382842847E-01
   0.2090000000E+01   0.9896083674E+00   0.9896083674E+00   0.1000000000E-05  -0.2215626801E-06  -0.2215626801E-06   0.8999900000E-01  -0.1039141104E-01  -0.1039141104E-01   0.3579347935E+03   0.5047960950E+01   0.5047960950E+01  -0.6740376815E-01  -0.6740376815E-01  -0.1084043696E-10   0.4418540688E-01   0.3875954124E-01   0.4382842847E-01
     1     2     3     4     5     6     7     8
     2     9    10     3     6    11    12     7
 VARIABLES = X,Y,Z,DU1,DU2,DU3,U1,U2,U3,S11,S22,S33,S12,S13,S23,OMEGA,EP,E11
 ZONE, T="0.9100D+00" F=FEPOINT, I=   12 J=    2 ET=BRICK
   0.0000000000E+00   0.1066251881E-01   0.1066251881E-01   0.0000000000E+00   0.2370455703E-06   0.2370455703E-06   0.0000000000E+00   0.1066228176E-01   0.1066228176E-01   0.3600542275E+03   0.6824363320E+01   0.6824363320E+01   0.3811958792E+00   0.3811958792E+00   0.1590534692E-10   0.4522108112E-01   0.3966228204E-01   0.4474398123E-01
   0.1045736603E+01   0.1056166593E-01   0.1056166593E-01   0.4423855095E-06   0.1657276577E-06   0.1657276577E-06   0.4573616057E-01   0.1056150021E-01   0.1056150021E-01   0.3499817166E+03  -0.3242351227E+01  -0.3242351227E+01   0.3800086767E+00   0.3800086767E+00  -0.1038514454E-10   0.4497479893E-01   0.3944786639E-01   0.4448070845E-01
   0.1045736603E+01   0.9894383341E+00   0.1056166593E-01   0.4423855095E-06  -0.1657276577E-06   0.1657276577E-06   0.4573616057E-01  -0.1056150021E-01   0.1056150021E-01   0.3499817166E+03  -0.3242351227E+01  -0.3242351227E+01  -0.3800086767E+00   0.3800086766E+00  -0.1088547204E-13   0.4497479892E-01   0.3944786639E-01   0.4448070845E-01
   0.0000000000E+00   0.9893374812E+00   0.1066251881E-01   0.0000000000E+00  -0.2370455703E-06   0.2370455703E-06   0.0000000000E+00  -0.1066228176E-01   0.1066228176E-01   0.3600542275E+03   0.6824363320E+01   0.6824363320E+01  -0.3811958792E+00   0.3811958792E+00  -0.8053337435E-14   0.4522108112E-01   0.3966228204E-01   0.4474398123E-01
   0.0000000000E+00   0.1066251881E-01   0.9893374812E+00   0.0000000000E+00   0.2370455703E-06  -0.2370455703E-06   0.0000000000E+00   0.1066228176E-01  -0.1066228176E-01   0.3600542275E+03   0.6824363320E+01   0.6824363320E+01   0.3811958792E+00  -0.3811958792E+00   0.2942548305E-14   0.4522108112E-01   0.3966228204E-01   0.4474398123E-01
   0.1045736603E+01   0.1056166593E-01   0.9894383341E+00   0.4423855095E-06   0.1657276577E-06  -0.1657276577E-06   0.4573616057E-01   0.1056150021E-01  -0.1056150021E-01   0.3499817166E+03  -0.3242351227E+01  -0.3242351227E+01   0.3800086766E+00  -0.3800086767E+00  -0.6879592579E-14   0.4497479892E-01   0.3944786639E-01   0.4448070845E-01
   0.1045736603E+01   0.9894383341E+00   0.9894383341E+00   0.4423855095E-06  -0.1657276577E-06  -0.1657276577E-06   0.4573616057E-01  -0.1056150021E-01  -0.1056150021E-01   0.3499817166E+03  -0.3242351226E+01  -0.3242351226E+01  -0.3800086767E+00  -0.3800086767E+00   0.1036737947E-10   0.4497479892E-01   0.3944786639E-01   0.4448070845E-01
   0.0000000000E+00   0.9893374812E+00   0.9893374812E+00   0.0000000000E+00  -0.2370455703E-06  -0.2370455703E-06   0.0000000000E+00  -0.1066228176E-01  -0.1066228176E-01   0.3600542275E+03   0.6824363320E+01   0.6824363320E+01  -0.3811958792E+00  -0.3811958792E+00  -0.1591045771E-10   0.4522108112E-01   0.3966228204E-01   0.4474398123E-01
   0.2091000000E+01   0.1058439550E-01   0.1058439550E-01   0.1000000000E-05   0.9483122734E-07   0.9483122734E-07   0.9099900000E-01   0.1058430066E-01   0.1058430066E-01   0.3398662007E+03  -0.1324905094E+02  -0.1324905094E+02   0.3787252242E+00   0.3787252242E+00  -0.3837127737E-10   0.4479683671E-01   0.3929175678E-01   0.4427355118E-01
   0.2091000000E+01   0.9894156045E+00   0.1058439550E-01   0.1000000000E-05  -0.9483122734E-07   0.9483122734E-07   0.9099900000E-01  -0.1058430066E-01   0.1058430066E-01   0.3398662006E+03  -0.1324905094E+02  -0.1324905094E+02  -0.3787252242E+00   0.3787252242E+00   0.2179658967E-13   0.4479683671E-01   0.3929175678E-01   0.4427355118E-01
   0.2091000000E+01   0.1058439550E-01   0.9894156045E+00   0.1000000000E-05   0.9483122734E-07  -0.9483122734E-07   0.9099900000E-01   0.1058430066E-01  -0.1058430066E-01   0.3398662006E+03  -0.1324905094E+02  -0.1324905094E+02   0.3787252242E+00  -0.3787252242E+00  -0.1270054347E-13   0.4479683671E-01   0.3929175678E-01   0.4427355118E-01
   0.2091000000E+01   0.9894156045E+00   0.9894156045E+00   0.1000000000E-05  -0.9483122734E-07  -0.9483122734E-07   0.9099900000E-01  -0.1058430066E-01  -0.1058430066E-01   0.3398662006E+03  -0.1324905094E+02  -0.1324905094E+02  -0.3787252241E+00  -0.3787252241E+00   0.3838037341E-10   0.4479683670E-01   0.3929175678E-01   0.4427355118E-01
     1     2     3     4     5     6     7     8
     2     9    10     3     6    11    12     7
 VARIABLES = X,Y,Z,DU1,DU2,DU3,U1,U2,U3,S11,S22,S33,S12,S13,S23,OMEGA,EP,E11
 ZONE, T="0.9200D+00" F=FEPOINT, I=   12 J=    2 ET=BRICK
   0.0000000000E+00   0.1087855414E-01   0.1087855414E-01   0.0000000000E+00   0.1228667410E-06   0.1228667410E-06   0.0000000000E+00   0.1087843128E-01   0.1087843128E-01   0.3413130546E+03  -0.1206778114E+02  -0.1206778114E+02  -0.4968934331E+00  -0.4968934331E+00  -0.3082736511E-10   0.4580433950E-01   0.4017070216E-01   0.4516104950E-01
   0.1046147809E+01   0.1067240601E-01   0.1067240601E-01   0.4510278934E-06   0.6220592598E-07   0.6220592598E-07   0.4614735833E-01   0.1067234380E-01   0.1067234380E-01   0.3516732587E+03  -0.1544064413E+01  -0.1544064413E+01  -0.4970580855E+00  -0.4970580855E+00  -0.4110767502E-11   0.4551393449E-01   0.3991768933E-01   0.4495880799E-01
   0.1046147809E+01   0.9893275940E+00   0.1067240601E-01   0.4510278934E-06  -0.6220592598E-07   0.6220592598E-07   0.4614735833E-01  -0.1067234380E-01   0.1067234380E-01   0.3516732587E+03  -0.1544064413E+01  -0.1544064413E+01   0.4970580855E+00  -0.4970580854E+00  -0.1314397858E-13   0.4551393449E-01   0.3991768933E-01   0.4495880799E-01
   0.0000000000E+00   0.9891214459E+00   0.1087855414E-01   0.0000000000E+00  -0.1228667410E-06   0.1228667410E-06   0.0000000000E+00  -0.1087843128E-01   0.1087843128E-01   0.3413130546E+03  -0.1206778114E+02  -0.1206778114E+02   0.4968934330E+00  -0.4968934331E+00   0.1887321917E-14   0.4580433950E-01   0.4017070216E-01   0.4516104950E-01
   0.0000000000E+00   0.1087855414E-01   0.9891214459E+00   0.0000000000E+00   0.1228667410E-06  -0.1228667410E-06   0.0000000000E+00   0.1087843128E-01  -0.1087843128E-01   0.3413130546E+03  -0.1206778114E+02  -0.1206778114E+02  -0.4968934331E+00   0.4968934330E+00   0.1395212895E-13   0.4580433950E-01   0.4017070216E-01   0.4516104950E-01
   0.1046147809E+01   0.1067240601E-01   0.9893275940E+00   0.4510278934E-06   0.6220592598E-07  -0.6220592598E-07   0.4614735833E-01   0.1067234380E-01  -0.1067234380E-01   0.3516732587E+03  -0.1544064413E+01  -0.1544064413E+01  -0.4970580854E+00   0.4970580855E+00  -0.1707281208E-14   0.4551393449E-01   0.3991768933E-01   0.4495880799E-01
   0.1046147809E+01   0.9893275940E+00   0.9893275940E+00   0.4510278934E-06  -0.6220592598E-07  -0.6220592598E-07   0.4614735833E-01  -0.1067234380E-01  -0.1067234380E-01   0.3516732587E+03  -0.1544064413E+01  -0.1544064413E+01   0.4970580854E+00   0.4970580854E+00   0.4095916242E-11   0.4551393449E-01   0.3991768932E-01   0.4495880799E-01
   0.0000000000E+00   0.9891214459E+00   0.9891214459E+00   0.0000000000E+00  -0.1228667410E-06  -0.1228667410E-06   0.0000000000E+00  -0.1087843128E-01  -0.1087843128E-01   0.3413130546E+03  -0.1206778114E+02  -0.1206778114E+02   0.4968934330E+00   0.4968934330E+00   0.3084320455E-10   0.4580433949E-01   0.4017070216E-01   0.4516104950E-01
   0.2092000000E+01   0.1059018278E-01   0.1059018278E-01   0.1000000000E-05   0.1802712679E-08   0.1802712679E-08   0.9199900000E-01   0.1059018097E-01   0.1059018097E-01   0.3621979446E+03   0.8935934333E+01   0.8935934333E+01  -0.4975217245E+00  -0.4975217245E+00   0.2319264218E-10   0.4528758069E-01   0.3971922939E-01   0.4481286819E-01
   0.2092000000E+01   0.9894098172E+00   0.1059018278E-01   0.1000000000E-05  -0.1802712679E-08   0.1802712684E-08   0.9199900000E-01  -0.1059018097E-01   0.1059018097E-01   0.3621979446E+03   0.8935934333E+01   0.8935934333E+01   0.4975217244E+00  -0.4975217244E+00  -0.3259453485E-14   0.4528758069E-01   0.3971922939E-01   0.4481286819E-01
   0.2092000000E+01   0.1059018278E-01   0.9894098172E+00   0.1000000000E-05   0.1802712684E-08  -0.1802712679E-08   0.9199900000E-01   0.1059018097E-01  -0.1059018097E-01   0.3621979446E+03   0.8935934333E+01   0.8935934333E+01  -0.4975217244E+00   0.4975217244E+00  -0.9632663356E-14   0.4528758069E-01   0.3971922939E-01   0.4481286819E-01
   0.2092000000E+01   0.9894098172E+00   0.9894098172E+00   0.1000000000E-05  -0.1802712684E-08  -0.1802712684E-08   0.9199900000E-01  -0.1059018097E-01  -0.1059018097E-01   0.3621979446E+03   0.8935934333E+01   0.8935934333E+01   0.4975217244E+00   0.4975217244E+00  -0.2320553430E-10   0.4528758068E-01   0.3971922939E-01   0.4481286819E-01
     1     2     3     4     5     6     7     8
     2     9    10     3     6    11    12     7
 VARIABLES = X,Y,Z,DU1,DU2,DU3,U1,U2,U3,S11,S22,S33,S12,S13,S23,OMEGA,EP,E11
 ZONE, T="0.9300D+00" F=FEPOINT, I=   12 J=    2 ET=BRICK
   0.0000000000E+00   0.1091943738E-01   0.1091943738E-01   0.0000000000E+00   0.2570571697E-07   0.2570571697E-07   0.0000000000E+00   0.1091941167E-01   0.1091941167E-01   0.3588297934E+03   0.5435032424E+01   0.5435032424E+01  -0.3458296088E-01  -0.3458296088E-01   0.1850791293E-10   0.4629544036E-01   0.4059930440E-01   0.4567632262E-01
   0.1046699216E+01   0.1076417301E-01   0.1076417301E-01   0.6153483803E-06   0.1477164596E-06   0.1477164596E-06   0.4669860102E-01   0.1076402529E-01   0.1076402529E-01   0.3587798384E+03   0.5480299950E+01   0.5480299950E+01  -0.3338990759E-01  -0.3338990759E-01   0.1448629098E-10   0.4601494541E-01   0.4035974709E-01   0.4543667366E-01
   0.1046699216E+01   0.9892358270E+00   0.1076417301E-01   0.6153483803E-06  -0.1477164596E-06   0.1477164596E-06   0.4669860102E-01  -0.1076402529E-01   0.1076402529E-01   0.3587798384E+03   0.5480299950E+01   0.5480299950E+01   0.3338990760E-01  -0.3338990759E-01  -0.2777900094E-14   0.4601494541E-01   0.4035974709E-01   0.4543667366E-01
   0.0000000000E+00   0.9890805626E+00   0.1091943738E-01   0.0000000000E+00  -0.2570571697E-07   0.2570571698E-07   0.0000000000E+00  -0.1091941167E-01   0.1091941167E-01   0.3588297934E+03   0.5435032423E+01   0.5435032423E+01   0.3458296089E-01  -0.3458296088E-01   0.9187218845E-14   0.4629544036E-01   0.4059930440E-01   0.4567632262E-01
   0.0000000000E+00   0.1091943738E-01   0.9890805626E+00   0.0000000000E+00   0.2570571698E-07  -0.2570571697E-07   0.0000000000E+00   0.1091941167E-01  -0.1091941167E-01   0.3588297934E+03   0.5435032423E+01   0.5435032423E+01  -0.3458296088E-01   0.3458296089E-01   0.1378203254E-13   0.4629544036E-01   0.4059930440E-01   0.4567632262E-01
   0.1046699216E+01   0.1076417301E-01   0.9892358270E+00   0.6153483803E-06   0.1477164596E-06  -0.1477164596E-06   0.4669860102E-01   0.1076402529E-01  -0.1076402529E-01   0.3587798384E+03   0.5480299950E+01   0.5480299950E+01  -0.3338990759E-01   0.3338990760E-01   0.7527989416E-14   0.4601494541E-01   0.4035974709E-01   0.4543667366E-01
   0.1046699216E+01   0.9892358270E+00   0.9892358270E+00   0.6153483803E-06  -0.1477164596E-06  -0.1477164596E-06   0.4669860102E-01  -0.1076402529E-01  -0.1076402529E-01   0.3587798384E+03   0.5480299949E+01   0.5480299949E+01   0.3338990760E-01   0.3338990760E-01  -0.1448154089E-10   0.4601494541E-01   0.4035974709E-01   0.4543667366E-01
   0.0000000000E+00   0.9890805626E+00   0.9890805626E+00   0.0000000000E+00  -0.2570571698E-07  -0.2570571698E-07   0.0000000000E+00  -0.1091941167E-01  -0.1091941167E-01   0.3588297934E+03   0.5435032423E+01   0.5435032423E+01   0.3458296089E-01   0.3458296089E-01  -0.1848494367E-10   0.4629544036E-01   0.4059930440E-01   0.4567632262E-01
   0.2093000000E+01   0.1073301894E-01   0.1073301894E-01   0.1000000000E-05   0.2698129313E-06   0.2698129313E-06   0.9299900000E-01   0.1073274913E-01   0.1073274913E-01   0.3589036335E+03   0.5478312946E+01   0.5478312946E+01  -0.3221551785E-01  -0.3221551785E-01   0.1293125623E-10   0.4579807270E-01   0.4017466510E-01   0.4525341008E-01
   0.2093000000E+01   0.9892669811E+00   0.1073301894E-01   0.1000000000E-05  -0.2698129313E-06   0.2698129313E-06   0.9299900000E-01  -0.1073274913E-01   0.1073274913E-01   0.3589036335E+03   0.5478312946E+01   0.5478312946E+01   0.3221551786E-01  -0.3221551785E-01  -0.1945127732E-13   0.4579807270E-01   0.4017466510E-01   0.4525341008E-01
   0.2093000000E+01   0.1073301894E-01   0.9892669811E+00   0.1000000000E-05   0.2698129313E-06  -0.2698129313E-06   0.9299900000E-01   0.1073274913E-01  -0.1073274913E-01   0.3589036335E+03   0.5478312946E+01   0.5478312946E+01  -0.3221551785E-01   0.3221551786E-01  -0.2743370355E-14   0.4579807270E-01   0.4017466510E-01   0.4525341008E-01
   0.2093000000E+01   0.9892669811E+00   0.9892669811E+00   0.1000000000E-05  -0.2698129313E-06  -0.2698129313E-06   0.9299900000E-01  -0.1073274913E-01  -0.1073274913E-01   0.3589036334E+03   0.5478312946E+01   0.5478312946E+01   0.3221551786E-01   0.3221551786E-01  -0.1295345088E-10   0.4579807270E-01   0.4017466510E-01   0.4525341007E-01
     1     2     3     4     5     6     7     8
     2     9    10     3     6    11    12     7
 VARIABLES = X,Y,Z,DU1,DU2,DU3,U1,U2,U3,S11,S22,S33,S12,S13,S23,OMEGA,EP,E11
 ZONE, T="0.9400D+00" F=FEPOINT, I=   12 J=    2 ET=BRICK
   0.0000000000E+00   0.1102664392E-01   0.1102664392E-01   0.0000000000E+00   0.1839712966E-06   0.1839712966E-06   0.0000000000E+00   0.1102645995E-01   0.1102645995E-01   0.3578626399E+03   0.4149176716E+01   0.4149176716E+01   0.3661763481E+00   0.3661763481E+00   0.1032644569E-10   0.4687850969E-01   0.4111623914E-01   0.4619165617E-01
   0.1047250987E+01   0.1092332490E-01   0.1092332490E-01   0.4516089839E-06   0.1254497636E-06   0.1254497636E-06   0.4725053517E-01   0.1092319945E-01   0.1092319945E-01   0.3470724948E+03  -0.6460465695E+01  -0.6460465695E+01   0.3666838728E+00   0.3666838728E+00  -0.1858706577E-10   0.4662352221E-01   0.4089294199E-01   0.4591433230E-01
   0.1047250987E+01   0.9890766751E+00   0.1092332490E-01   0.4516089839E-06  -0.1254497636E-06   0.1254497636E-06   0.4725053517E-01  -0.1092319945E-01   0.1092319945E-01   0.3470724947E+03  -0.6460465695E+01  -0.6460465695E+01  -0.3666838727E+00   0.3666838727E+00   0.7382458760E-14   0.4662352220E-01   0.4089294199E-01   0.4591433230E-01
   0.0000000000E+00   0.9889733561E+00   0.1102664392E-01   0.0000000000E+00  -0.1839712966E-06   0.1839712966E-06   0.0000000000E+00  -0.1102645995E-01   0.1102645995E-01   0.3578626398E+03   0.4149176716E+01   0.4149176716E+01  -0.3661763481E+00   0.3661763481E+00   0.1133068078E-13   0.4687850969E-01   0.4111623914E-01   0.4619165617E-01
   0.0000000000E+00   0.1102664392E-01   0.9889733561E+00   0.0000000000E+00   0.1839712966E-06  -0.1839712966E-06   0.0000000000E+00   0.1102645995E-01  -0.1102645995E-01   0.3578626398E+03   0.4149176716E+01   0.4149176716E+01   0.3661763481E+00  -0.3661763481E+00   0.5604457421E-15   0.4687850969E-01   0.4111623914E-01   0.4619165617E-01
   0.1047250987E+01   0.1092332490E-01   0.9890766751E+00   0.4516089839E-06   0.1254497636E-06  -0.1254497636E-06   0.4725053517E-01   0.1092319945E-01  -0.1092319945E-01   0.3470724947E+03  -0.6460465695E+01  -0.6460465695E+01   0.3666838727E+00  -0.3666838727E+00   0.7522804730E-14   0.4662352220E-01   0.4089294199E-01   0.4591433230E-01
   0.1047250987E+01   0.9890766751E+00   0.9890766751E+00   0.4516089839E-06  -0.1254497636E-06  -0.1254497636E-06   0.4725053517E-01  -0.1092319945E-01  -0.1092319945E-01   0.3470724947E+03  -0.6460465694E+01  -0.6460465694E+01  -0.3666838727E+00  -0.3666838727E+00   0.1860197103E-10   0.4662352220E-01   0.4089294199E-01   0.4591433229E-01
   0.0000000000E+00   0.9889733561E+00   0.9889733561E+00   0.0000000000E+00  -0.1839712966E-06  -0.1839712966E-06   0.0000000000E+00  -0.1102645995E-01  -0.1102645995E-01   0.3578626398E+03   0.4149176716E+01   0.4149176716E+01  -0.3661763480E+00  -0.3661763480E+00  -0.1031455457E-10   0.4687850969E-01   0.4111623914E-01   0.4619165617E-01
   0.2094000000E+01   0.1094407495E-01   0.1094407495E-01   0.1000000000E-05   0.6676731510E-07   0.6676731510E-07   0.9399900000E-01   0.1094400818E-01   0.1094400818E-01   0.3364736714E+03  -0.1712726419E+02  -0.1712726419E+02   0.3674519039E+00   0.3674519039E+00  -0.4394908385E-10   0.4643203929E-01   0.4072376517E-01   0.4569338702E-01
   0.2094000000E+01   0.9890559251E+00   0.1094407495E-01   0.1000000000E-05  -0.6676731510E-07   0.6676731510E-07   0.9399900000E-01  -0.1094400818E-01   0.1094400818E-01   0.3364736714E+03  -0.1712726419E+02  -0.1712726419E+02  -0.3674519039E+00   0.3674519039E+00  -0.1214577531E-13   0.4643203928E-01   0.4072376517E-01   0.4569338701E-01
   0.2094000000E+01   0.1094407495E-01   0.9890559251E+00   0.1000000000E-05   0.6676731510E-07  -0.6676731510E-07   0.9399900000E-01   0.1094400818E-01  -0.1094400818E-01   0.3364736714E+03  -0.1712726419E+02  -0.1712726419E+02   0.3674519039E+00  -0.3674519039E+00   0.1109602628E-13   0.4643203928E-01   0.4072376517E-01   0.4569338701E-01
   0.2094000000E+01   0.9890559251E+00   0.9890559251E+00   0.1000000000E-05  -0.6676731510E-07  -0.6676731510E-07   0.9399900000E-01  -0.1094400818E-01  -0.1094400818E-01   0.3364736714E+03  -0.1712726419E+02  -0.1712726419E+02  -0.3674519039E+00  -0.3674519039E+00   0.4394803410E-10   0.4643203928E-01   0.4072376517E-01   0.4569338701E-01
     1     2     3     4     5     6     7     8
     2     9    10     3     6    11    12     7
 VARIABLES = X,Y,Z,DU1,DU2,DU3,U1,U2,U3,S11,S22,S33,S12,S13,S23,OMEGA,EP,E11
 ZONE, T="0.9500D+00" F=FEPOINT, I=   12 J=    2 ET=BRICK
   0.0000000000E+00   0.1120923242E-01   0.1120923242E-01   0.0000000000E+00   0.1430645305E-06   0.1430645305E-06   0.0000000000E+00   0.1120908935E-01   0.1120908935E-01   0.3480764914E+03  -0.5714711557E+01  -0.5714711557E+01  -0.4952734378E+00  -0.4952734378E+00  -0.1424562653E-10   0.4740735916E-01   0.4157938681E-01   0.4660692136E-01
   0.1047661309E+01   0.1100246743E-01   0.1100246743E-01   0.4394148549E-06   0.7274072789E-07   0.7274072789E-07   0.4766086960E-01   0.1100239469E-01   0.1100239469E-01   0.3577582268E+03   0.4003996883E+01   0.4003996883E+01  -0.4964029933E+00  -0.4964029933E+00   0.1216077711E-10   0.4710704379E-01   0.4131566597E-01   0.4639181860E-01
   0.1047661309E+01   0.9889975326E+00   0.1100246743E-01   0.4394148549E-06  -0.7274072788E-07   0.7274072789E-07   0.4766086960E-01  -0.1100239469E-01   0.1100239469E-01   0.3577582268E+03   0.4003996883E+01   0.4003996883E+01   0.4964029933E+00  -0.4964029933E+00   0.1230936876E-13   0.4710704379E-01   0.4131566596E-01   0.4639181860E-01
   0.0000000000E+00   0.9887907676E+00   0.1120923242E-01   0.0000000000E+00  -0.1430645305E-06   0.1430645305E-06   0.0000000000E+00  -0.1120908935E-01   0.1120908935E-01   0.3480764914E+03  -0.5714711556E+01  -0.5714711556E+01   0.4952734378E+00  -0.4952734378E+00   0.1928472465E-13   0.4740735916E-01   0.4157938681E-01   0.4660692136E-01
   0.0000000000E+00   0.1120923242E-01   0.9887907676E+00   0.0000000000E+00   0.1430645305E-06  -0.1430645305E-06   0.0000000000E+00   0.1120908935E-01  -0.1120908935E-01   0.3480764914E+03  -0.5714711556E+01  -0.5714711556E+01  -0.4952734378E+00   0.4952734378E+00  -0.1389034881E-13   0.4740735916E-01   0.4157938681E-01   0.4660692136E-01
   0.1047661309E+01   0.1100246743E-01   0.9889975326E+00   0.4394148549E-06   0.7274072789E-07  -0.7274072788E-07   0.4766086960E-01   0.1100239469E-01  -0.1100239469E-01   0.3577582268E+03   0.4003996883E+01   0.4003996883E+01  -0.4964029933E+00   0.4964029933E+00  -0.2885008962E-14   0.4710704379E-01   0.4131566596E-01   0.4639181860E-01
   0.1047661309E+01   0.9889975326E+00   0.9889975326E+00   0.4394148550E-06  -0.7274072789E-07  -0.7274072789E-07   0.4766086960E-01  -0.1100239469E-01  -0.1100239469E-01   0.3577582268E+03   0.4003996882E+01   0.4003996882E+01   0.4964029933E+00   0.4964029933E+00  -0.1215135275E-10   0.4710704378E-01   0.4131566596E-01   0.4639181860E-01
   0.0000000000E+00   0.9887907676E+00   0.9887907676E+00   0.0000000000E+00  -0.1430645305E-06  -0.1430645305E-06   0.0000000000E+00  -0.1120908935E-01  -0.1120908935E-01   0.3480764914E+03  -0.5714711556E+01  -0.5714711556E+01   0.4952734378E+00   0.4952734378E+00   0.1425102091E-10   0.4740735916E-01   0.4157938681E-01   0.4660692136E-01
   0.2095000000E+01   0.1091950239E-01   0.1091950239E-01   0.1000000000E-05   0.2063653138E-08   0.2063653138E-08   0.9499900000E-01   0.1091950032E-01   0.1091950032E-01   0.3674777284E+03   0.1374248167E+02   0.1374248167E+02  -0.4975724489E+00  -0.4975724489E+00   0.4203954234E-10   0.4687341436E-01   0.4110888878E-01   0.4623299924E-01
   0.2095000000E+01   0.9890804976E+00   0.1091950239E-01   0.1000000000E-05  -0.2063653138E-08   0.2063653143E-08   0.9499900000E-01  -0.1091950032E-01   0.1091950032E-01   0.3674777284E+03   0.1374248167E+02   0.1374248167E+02   0.4975724489E+00  -0.4975724489E+00  -0.3313810981E-14   0.4687341435E-01   0.4110888878E-01   0.4623299924E-01
   0.2095000000E+01   0.1091950239E-01   0.9890804976E+00   0.1000000000E-05   0.2063653143E-08  -0.2063653138E-08   0.9499900000E-01   0.1091950032E-01  -0.1091950032E-01   0.3674777284E+03   0.1374248167E+02   0.1374248167E+02  -0.4975724489E+00   0.4975724489E+00   0.1367717393E-13   0.4687341435E-01   0.4110888878E-01   0.4623299924E-01
   0.2095000000E+01   0.9890804976E+00   0.9890804976E+00   0.1000000000E-05  -0.2063653143E-08  -0.2063653143E-08   0.9499900000E-01  -0.1091950032E-01  -0.1091950032E-01   0.3674777284E+03   0.1374248167E+02   0.1374248167E+02   0.4975724488E+00   0.4975724488E+00  -0.4202917897E-10   0.4687341435E-01   0.4110888878E-01   0.4623299924E-01
     1     2     3     4     5     6     7     8
     2     9    10     3     6    11    12     7
 VARIABLES = X,Y,Z,DU1,DU2,DU3,U1,U2,U3,S11,S22,S33,S12,S13,S23,OMEGA,EP,E11
 ZONE, T="0.9600D+00" F=FEPOINT, I=   12 J=    2 ET=BRICK
   0.0000000000E+00   0.1129642131E-01   0.1129642131E-01   0.0000000000E+00   0.5056490759E-07   0.5056490759E-07   0.0000000000E+00   0.1129637075E-01   0.1129637075E-01   0.3531309822E+03  -0.7897849346E+00  -0.7897849346E+00  -0.9905247789E-01  -0.9905247789E-01  -0.1458573564E-11   0.4795658027E-01   0.4205887787E-01   0.4711269042E-01
   0.1048201454E+01   0.1113169909E-01   0.1113169909E-01   0.6114288881E-06   0.1721545146E-06   0.1721545146E-06   0.4820084303E-01   0.1113152694E-01   0.1113152694E-01   0.3543174154E+03   0.5191597430E+00   0.5191597430E+00  -0.1006345253E+00  -0.1006345253E+00   0.2410549021E-12   0.4766637543E-01   0.4180947178E-01   0.4686906365E-01
   0.1048201454E+01   0.9888683009E+00   0.1113169909E-01   0.6114288881E-06  -0.1721545146E-06   0.1721545146E-06   0.4820084303E-01  -0.1113152694E-01   0.1113152694E-01   0.3543174154E+03   0.5191597430E+00   0.5191597430E+00   0.1006345253E+00  -0.1006345253E+00   0.8041107896E-14   0.4766637543E-01   0.4180947178E-01   0.4686906365E-01
   0.0000000000E+00   0.9887035787E+00   0.1129642131E-01   0.0000000000E+00  -0.5056490759E-07   0.5056490759E-07   0.0000000000E+00  -0.1129637074E-01   0.1129637075E-01   0.3531309822E+03  -0.7897849345E+00  -0.7897849345E+00   0.9905247788E-01  -0.9905247789E-01   0.2203426002E-13   0.4795658027E-01   0.4205887787E-01   0.4711269042E-01
   0.0000000000E+00   0.1129642131E-01   0.9887035787E+00   0.0000000000E+00   0.5056490759E-07  -0.5056490759E-07   0.0000000000E+00   0.1129637075E-01  -0.1129637074E-01   0.3531309822E+03  -0.7897849345E+00  -0.7897849345E+00  -0.9905247789E-01   0.9905247788E-01  -0.2409510890E-13   0.4795658027E-01   0.4205887787E-01   0.4711269042E-01
   0.1048201454E+01   0.1113169909E-01   0.9888683009E+00   0.6114288881E-06   0.1721545146E-06  -0.1721545146E-06   0.4820084303E-01   0.1113152694E-01  -0.1113152694E-01   0.3543174154E+03   0.5191597430E+00   0.5191597430E+00  -0.1006345253E+00   0.1006345253E+00  -0.1599508114E-13   0.4766637543E-01   0.4180947178E-01   0.4686906365E-01
   0.1048201454E+01   0.9888683009E+00   0.9888683009E+00   0.6114288881E-06  -0.1721545146E-06  -0.1721545146E-06   0.4820084303E-01  -0.1113152694E-01  -0.1113152694E-01   0.3543174154E+03   0.5191597430E+00   0.5191597430E+00   0.1006345253E+00   0.1006345253E+00  -0.2490088753E-12   0.4766637542E-01   0.4180947177E-01   0.4686906364E-01
   0.0000000000E+00   0.9887035787E+00   0.9887035787E+00   0.0000000000E+00  -0.5056490759E-07  -0.5056490759E-07   0.0000000000E+00  -0.1129637074E-01  -0.1129637074E-01   0.3531309821E+03  -0.7897849345E+00  -0.7897849345E+00   0.9905247788E-01   0.9905247788E-01   0.1456512715E-11   0.4795658027E-01   0.4205887787E-01   0.4711269042E-01
   0.2096000000E+01   0.1109040689E-01   0.1109040689E-01   0.1000000000E-05   0.2933706358E-06   0.2933706358E-06   0.9599900000E-01   0.1109011352E-01   0.1109011352E-01   0.3556719903E+03   0.1783521479E+01   0.1783521479E+01  -0.1022793108E+00  -0.1022793108E+00   0.4129485740E-11   0.4743951342E-01   0.4161437749E-01   0.4668155737E-01
   0.2096000000E+01   0.9889095931E+00   0.1109040689E-01   0.1000000000E-05  -0.2933706357E-06   0.2933706357E-06   0.9599900000E-01  -0.1109011352E-01   0.1109011352E-01   0.3556719903E+03   0.1783521478E+01   0.1783521478E+01   0.1022793108E+00  -0.1022793108E+00  -0.1082541448E-14   0.4743951342E-01   0.4161437749E-01   0.4668155737E-01
   0.2096000000E+01   0.1109040689E-01   0.9889095931E+00   0.1000000000E-05   0.2933706357E-06  -0.2933706357E-06   0.9599900000E-01   0.1109011352E-01  -0.1109011352E-01   0.3556719903E+03   0.1783521478E+01   0.1783521478E+01  -0.1022793108E+00   0.1022793108E+00   0.3082953100E-15   0.4743951342E-01   0.4161437749E-01   0.4668155737E-01
   0.2096000000E+01   0.9889095931E+00   0.9889095931E+00   0.1000000000E-05  -0.2933706357E-06  -0.2933706357E-06   0.9599900000E-01  -0.1109011352E-01  -0.1109011352E-01   0.3556719903E+03   0.1783521478E+01   0.1783521478E+01   0.1022793108E+00   0.1022793108E+00  -0.4130259986E-11   0.4743951342E-01   0.4161437749E-01   0.4668155736E-01
     1     2     3     4     5     6     7     8
     2     9    10     3     6    11    12     7
 VARIABLES = X,Y,Z,DU1,DU2,DU3,U1,U2,U3,S11,S22,S33,S12,S13,S23,OMEGA,EP,E11
 ZONE, T="0.9700D+00" F=FEPOINT, I=   12 J=    2 ET=BRICK
   0.0000000000E+00   0.1136995402E-01   0.1136995402E-01   0.0000000000E+00   0.1236235526E-06   0.1236235526E-06   0.0000000000E+00   0.1136983040E-01   0.1136983040E-01   0.3602766704E+03   0.6344523540E+01   0.6344523540E+01   0.3898477275E+00   0.3898477275E+00   0.1514643983E-10   0.4850318025E-01   0.4254080474E-01   0.4763017296E-01
   0.1048758627E+01   0.1126697140E-01   0.1126697140E-01   0.4604877443E-06   0.7849453262E-07   0.7849453262E-07   0.4875816645E-01   0.1126689290E-01   0.1126689290E-01   0.3492202017E+03  -0.4800566985E+01  -0.4800566985E+01   0.3866888464E+00   0.3866888464E+00  -0.1326398536E-10   0.4823974392E-01   0.4230952769E-01   0.4734607459E-01
   0.1048758627E+01   0.9887330286E+00   0.1126697140E-01   0.4604877443E-06  -0.7849453262E-07   0.7849453262E-07   0.4875816645E-01  -0.1126689290E-01   0.1126689290E-01   0.3492202017E+03  -0.4800566984E+01  -0.4800566984E+01  -0.3866888464E+00   0.3866888464E+00   0.1287795225E-13   0.4823974392E-01   0.4230952769E-01   0.4734607459E-01
   0.0000000000E+00   0.9886300460E+00   0.1136995402E-01   0.0000000000E+00  -0.1236235526E-06   0.1236235526E-06   0.0000000000E+00  -0.1136983040E-01   0.1136983040E-01   0.3602766704E+03   0.6344523540E+01   0.6344523540E+01  -0.3898477274E+00   0.3898477274E+00   0.1793113601E-13   0.4850318025E-01   0.4254080474E-01   0.4763017295E-01
   0.0000000000E+00   0.1136995402E-01   0.9886300460E+00   0.0000000000E+00   0.1236235526E-06  -0.1236235526E-06   0.0000000000E+00   0.1136983040E-01  -0.1136983040E-01   0.3602766704E+03   0.6344523540E+01   0.6344523540E+01   0.3898477274E+00  -0.3898477274E+00  -0.2561942458E-13   0.4850318025E-01   0.4254080474E-01   0.4763017295E-01
   0.1048758627E+01   0.1126697140E-01   0.9887330286E+00   0.4604877443E-06   0.7849453262E-07  -0.7849453262E-07   0.4875816645E-01   0.1126689290E-01  -0.1126689290E-01   0.3492202017E+03  -0.4800566984E+01  -0.4800566984E+01   0.3866888464E+00  -0.3866888464E+00  -0.1238914889E-13   0.4823974392E-01   0.4230952769E-01   0.4734607459E-01
   0.1048758627E+01   0.9887330286E+00   0.9887330286E+00   0.4604877443E-06  -0.7849453262E-07  -0.7849453262E-07   0.4875816645E-01  -0.1126689290E-01  -0.1126689290E-01   0.3492202017E+03  -0.4800566984E+01  -0.4800566984E+01  -0.3866888464E+00  -0.3866888464E+00   0.1326447416E-10   0.4823974392E-01   0.4230952768E-01   0.4734607458E-01
   0.0000000000E+00   0.9886300460E+00   0.9886300460E+00   0.0000000000E+00  -0.1236235526E-06  -0.1236235526E-06   0.0000000000E+00  -0.1136983040E-01  -0.1136983040E-01   0.3602766704E+03   0.6344523540E+01   0.6344523540E+01  -0.3898477274E+00  -0.3898477274E+00  -0.1515412811E-10   0.4850318025E-01   0.4254080474E-01   0.4763017295E-01
   0.2097000000E+01   0.1128705715E-01   0.1128705715E-01   0.1000000000E-05   0.3302512949E-07   0.3302512949E-07   0.9699900000E-01   0.1128702413E-01   0.1128702413E-01   0.3381225877E+03  -0.1588691757E+02  -0.1588691757E+02   0.3834690940E+00   0.3834690940E+00  -0.4111310059E-10   0.4804441458E-01   0.4213636268E-01   0.4711793949E-01
   0.2097000000E+01   0.9887129428E+00   0.1128705715E-01   0.1000000000E-05  -0.3302512949E-07   0.3302512949E-07   0.9699900000E-01  -0.1128702413E-01   0.1128702413E-01   0.3381225876E+03  -0.1588691757E+02  -0.1588691757E+02  -0.3834690940E+00   0.3834690940E+00   0.2230405784E-13   0.4804441458E-01   0.4213636268E-01   0.4711793949E-01
   0.2097000000E+01   0.1128705715E-01   0.9887129428E+00   0.1000000000E-05   0.3302512949E-07  -0.3302512949E-07   0.9699900000E-01   0.1128702413E-01  -0.1128702413E-01   0.3381225876E+03  -0.1588691757E+02  -0.1588691757E+02   0.3834690940E+00  -0.3834690940E+00  -0.2331963887E-14   0.4804441458E-01   0.4213636268E-01   0.4711793949E-01
   0.2097000000E+01   0.9887129428E+00   0.9887129428E+00   0.1000000000E-05  -0.3302512949E-07  -0.3302512949E-07   0.9699900000E-01  -0.1128702413E-01  -0.1128702413E-01   0.3381225876E+03  -0.1588691757E+02  -0.1588691757E+02  -0.3834690940E+00  -0.3834690940E+00   0.4113307268E-10   0.4804441458E-01   0.4213636268E-01   0.4711793949E-01
     1     2     3     4     5     6     7     8
     2     9    10     3     6    11    12     7
 VARIABLES = X,Y,Z,DU1,DU2,DU3,U1,U2,U3,S11,S22,S33,S12,S13,S23,OMEGA,EP,E11
 ZONE, T="0.9800D+00" F=FEPOINT, I=   12 J=    2 ET=BRICK
   0.0000000000E+00   0.1154667127E-01   0.1154667127E-01   0.0000000000E+00   0.1959440277E-06   0.1959440277E-06   0.0000000000E+00   0.1154647533E-01   0.1154647533E-01   0.3518285455E+03  -0.2417303573E+01  -0.2417303573E+01  -0.4484211277E+00  -0.4484211277E+00  -0.7156509232E-11   0.4901663195E-01   0.4299361978E-01   0.4804392152E-01
   0.1049168616E+01   0.1134316794E-01   0.1134316794E-01   0.4284647091E-06   0.1166636633E-06   0.1166636633E-06   0.4916818716E-01   0.1134305128E-01   0.1134305128E-01   0.3606130771E+03   0.6498009541E+01   0.6498009541E+01  -0.4528646542E+00  -0.4528646542E+00   0.1819992795E-10   0.4871682049E-01   0.4272927609E-01   0.4782288313E-01
   0.1049168616E+01   0.9886568321E+00   0.1134316794E-01   0.4284647091E-06  -0.1166636633E-06   0.1166636633E-06   0.4916818716E-01  -0.1134305128E-01   0.1134305128E-01   0.3606130771E+03   0.6498009540E+01   0.6498009540E+01   0.4528646542E+00  -0.4528646542E+00   0.1868647238E-13   0.4871682048E-01   0.4272927609E-01   0.4782288313E-01
   0.0000000000E+00   0.9884533287E+00   0.1154667127E-01   0.0000000000E+00  -0.1959440277E-06   0.1959440277E-06   0.0000000000E+00  -0.1154647533E-01   0.1154647533E-01   0.3518285455E+03  -0.2417303573E+01  -0.2417303573E+01   0.4484211277E+00  -0.4484211277E+00   0.7935817673E-14   0.4901663195E-01   0.4299361978E-01   0.4804392152E-01
   0.0000000000E+00   0.1154667127E-01   0.9884533287E+00   0.0000000000E+00   0.1959440277E-06  -0.1959440277E-06   0.0000000000E+00   0.1154647533E-01  -0.1154647533E-01   0.3518285455E+03  -0.2417303573E+01  -0.2417303573E+01  -0.4484211277E+00   0.4484211277E+00  -0.1948371778E-13   0.4901663195E-01   0.4299361978E-01   0.4804392152E-01
   0.1049168616E+01   0.1134316794E-01   0.9886568321E+00   0.4284647091E-06   0.1166636633E-06  -0.1166636633E-06   0.4916818716E-01   0.1134305128E-01  -0.1134305128E-01   0.3606130771E+03   0.6498009540E+01   0.6498009540E+01  -0.4528646542E+00   0.4528646542E+00  -0.1420186067E-14   0.4871682048E-01   0.4272927609E-01   0.4782288313E-01
   0.1049168616E+01   0.9886568321E+00   0.9886568321E+00   0.4284647091E-06  -0.1166636633E-06  -0.1166636633E-06   0.4916818716E-01  -0.1134305128E-01  -0.1134305128E-01   0.3606130771E+03   0.6498009540E+01   0.6498009540E+01   0.4528646542E+00   0.4528646542E+00  -0.1818266167E-10   0.4871682048E-01   0.4272927609E-01   0.4782288313E-01
   0.0000000000E+00   0.9884533287E+00   0.9884533287E+00   0.0000000000E+00  -0.1959440277E-06  -0.1959440277E-06   0.0000000000E+00  -0.1154647533E-01  -0.1154647533E-01   0.3518285455E+03  -0.2417303573E+01  -0.2417303573E+01   0.4484211277E+00   0.4484211277E+00   0.7144961332E-11   0.4901663195E-01   0.4299361977E-01   0.4804392152E-01
   0.2098000000E+01   0.1126242572E-01   0.1126242572E-01   0.1000000000E-05   0.3713333665E-07   0.3713333665E-07   0.9799900000E-01   0.1126238859E-01   0.1126238859E-01   0.3694349595E+03   0.1543321441E+02   0.1543321441E+02  -0.4573717943E+00  -0.4573717943E+00   0.4234750501E-10   0.4848307192E-01   0.4252144293E-01   0.4765769414E-01
   0.2098000000E+01   0.9887375743E+00   0.1126242572E-01   0.1000000000E-05  -0.3713333664E-07   0.3713333665E-07   0.9799900000E-01  -0.1126238859E-01   0.1126238859E-01   0.3694349595E+03   0.1543321441E+02   0.1543321441E+02   0.4573717943E+00  -0.4573717943E+00   0.4597192551E-13   0.4848307192E-01   0.4252144293E-01   0.4765769414E-01
   0.2098000000E+01   0.1126242572E-01   0.9887375743E+00   0.1000000000E-05   0.3713333665E-07  -0.3713333664E-07   0.9799900000E-01   0.1126238859E-01  -0.1126238859E-01   0.3694349595E+03   0.1543321441E+02   0.1543321441E+02  -0.4573717943E+00   0.4573717943E+00  -0.5086534333E-14   0.4848307192E-01   0.4252144293E-01   0.4765769414E-01
   0.2098000000E+01   0.9887375743E+00   0.9887375743E+00   0.1000000000E-05  -0.3713333665E-07  -0.3713333665E-07   0.9799900000E-01  -0.1126238859E-01  -0.1126238859E-01   0.3694349594E+03   0.1543321441E+02   0.1543321441E+02   0.4573717942E+00   0.4573717942E+00  -0.4230661962E-10   0.4848307192E-01   0.4252144292E-01   0.4765769413E-01
     1     2     3     4     5     6     7     8
     2     9    10     3     6    11    12     7
 VARIABLES = X,Y,Z,DU1,DU2,DU3,U1,U2,U3,S11,S22,S33,S12,S13,S23,OMEGA,EP,E11
 ZONE, T="0.9900D+00" F=FEPOINT, I=   12 J=    2 ET=BRICK
   0.0000000000E+00   0.1167080462E-01   0.1167080462E-01   0.0000000000E+00   0.3420386244E-07   0.3420386244E-07   0.0000000000E+00   0.1167077042E-01   0.1167077042E-01   0.3470462397E+03  -0.7372598397E+01  -0.7372598397E+01  -0.1286031603E+00  -0.1286031603E+00  -0.1930812704E-10   0.4961297606E-01   0.4351169441E-01   0.4854014546E-01
   0.1049697245E+01   0.1149979061E-01   0.1149979061E-01   0.6065203894E-06   0.1535416345E-06   0.1535416345E-06   0.4969663867E-01   0.1149963707E-01   0.1149963707E-01   0.3494980224E+03  -0.4833660036E+01  -0.4833660036E+01  -0.1323089485E+00  -0.1323089485E+00  -0.1419895686E-10   0.4931882354E-01   0.4325859647E-01   0.4829942015E-01
   0.1049697245E+01   0.9885002094E+00   0.1149979061E-01   0.6065203894E-06  -0.1535416345E-06   0.1535416345E-06   0.4969663867E-01  -0.1149963707E-01   0.1149963707E-01   0.3494980224E+03  -0.4833660036E+01  -0.4833660035E+01   0.1323089485E+00  -0.1323089484E+00   0.4060131463E-14   0.4931882354E-01   0.4325859647E-01   0.4829942015E-01
   0.0000000000E+00   0.9883291954E+00   0.1167080462E-01   0.0000000000E+00  -0.3420386244E-07   0.3420386245E-07   0.0000000000E+00  -0.1167077042E-01   0.1167077042E-01   0.3470462397E+03  -0.7372598397E+01  -0.7372598397E+01   0.1286031603E+00  -0.1286031603E+00  -0.1217376913E-13   0.4961297606E-01   0.4351169440E-01   0.4854014546E-01
   0.0000000000E+00   0.1167080462E-01   0.9883291954E+00   0.0000000000E+00   0.3420386245E-07  -0.3420386244E-07   0.0000000000E+00   0.1167077042E-01  -0.1167077042E-01   0.3470462397E+03  -0.7372598397E+01  -0.7372598397E+01  -0.1286031603E+00   0.1286031603E+00  -0.2031227295E-13   0.4961297606E-01   0.4351169440E-01   0.4854014546E-01
   0.1049697245E+01   0.1149979061E-01   0.9885002094E+00   0.6065203894E-06   0.1535416345E-06  -0.1535416345E-06   0.4969663867E-01   0.1149963707E-01  -0.1149963707E-01   0.3494980224E+03  -0.4833660035E+01  -0.4833660036E+01  -0.1323089484E+00   0.1323089485E+00  -0.7192578114E-14   0.4931882354E-01   0.4325859647E-01   0.4829942015E-01
   0.1049697245E+01   0.9885002094E+00   0.9885002094E+00   0.6065203894E-06  -0.1535416345E-06  -0.1535416345E-06   0.4969663867E-01  -0.1149963707E-01  -0.1149963707E-01   0.3494980223E+03  -0.4833660035E+01  -0.4833660035E+01   0.1323089485E+00   0.1323089485E+00   0.1419582441E-10   0.4931882354E-01   0.4325859647E-01   0.4829942015E-01
   0.0000000000E+00   0.9883291954E+00   0.9883291954E+00   0.0000000000E+00  -0.3420386245E-07  -0.3420386245E-07   0.0000000000E+00  -0.1167077042E-01  -0.1167077042E-01   0.3470462397E+03  -0.7372598397E+01  -0.7372598397E+01   0.1286031603E+00   0.1286031603E+00   0.1927564099E-10   0.4961297606E-01   0.4351169440E-01   0.4854014545E-01
   0.2099000000E+01   0.1145140504E-01   0.1145140504E-01   0.1000000000E-05   0.2728526723E-06   0.2728526723E-06   0.9899900000E-01   0.1145113219E-01   0.1145113219E-01   0.3520337371E+03  -0.2297394602E+01  -0.2297394602E+01  -0.1360564004E+00  -0.1360564004E+00  -0.1149422950E-10   0.4908939861E-01   0.4306108234E-01   0.4811449413E-01
   0.2099000000E+01   0.9885485950E+00   0.1145140504E-01   0.1000000000E-05  -0.2728526723E-06   0.2728526723E-06   0.9899900000E-01  -0.1145113219E-01   0.1145113219E-01   0.3520337371E+03  -0.2297394602E+01  -0.2297394602E+01   0.1360564004E+00  -0.1360564004E+00   0.3875130427E-13   0.4908939861E-01   0.4306108234E-01   0.4811449413E-01
   0.2099000000E+01   0.1145140504E-01   0.9885485950E+00   0.1000000000E-05   0.2728526723E-06  -0.2728526723E-06   0.9899900000E-01   0.1145113219E-01  -0.1145113219E-01   0.3520337371E+03  -0.2297394602E+01  -0.2297394602E+01  -0.1360564004E+00   0.1360564004E+00  -0.2731402105E-13   0.4908939861E-01   0.4306108234E-01   0.4811449413E-01
   0.2099000000E+01   0.9885485950E+00   0.9885485950E+00   0.1000000000E-05  -0.2728526723E-06  -0.2728526723E-06   0.9899900000E-01  -0.1145113219E-01  -0.1145113219E-01   0.3520337370E+03  -0.2297394602E+01  -0.2297394602E+01   0.1360564004E+00   0.1360564004E+00   0.1150566679E-10   0.4908939861E-01   0.4306108234E-01   0.4811449413E-01
     1     2     3     4     5     6     7     8
     2     9    10     3     6    11    12     7
 VARIABLES = X,Y,Z,DU1,DU2,DU3,U1,U2,U3,S11,S22,S33,S12,S13,S23,OMEGA,EP,E11
 ZONE, T="0.1000D+01" F=FEPOINT, I=   12 J=    2 ET=BRICK
   0.0000000000E+00   0.1169750669E-01   0.1169750669E-01   0.0000000000E+00   0.9286709125E-07   0.9286709125E-07   0.0000000000E+00   0.1169741383E-01   0.1169741383E-01   0.3663891543E+03   0.1197583360E+02   0.1197583360E+02   0.4342654909E+00   0.4342654909E+00   0.3294907382E-10   0.5009461993E-01   0.4393570606E-01   0.4905973090E-01
   0.1050259460E+01   0.1159666087E-01   0.1159666087E-01   0.4702337526E-06   0.6085078167E-07   0.6085078167E-07   0.5025899020E-01   0.1159660002E-01   0.1159660002E-01   0.3549721494E+03   0.5692480623E+00   0.5692480623E+00   0.4303798624E+00   0.4303798624E+00   0.3138268854E-11   0.4983334559E-01   0.4370721879E-01   0.4877570481E-01
   0.1050259460E+01   0.9884033391E+00   0.1159666087E-01   0.4702337526E-06  -0.6085078166E-07   0.6085078167E-07   0.5025899020E-01  -0.1159660002E-01   0.1159660002E-01   0.3549721494E+03   0.5692480622E+00   0.5692480622E+00  -0.4303798624E+00   0.4303798624E+00  -0.7714861727E-14   0.4983334559E-01   0.4370721879E-01   0.4877570481E-01
   0.0000000000E+00   0.9883024933E+00   0.1169750669E-01   0.0000000000E+00  -0.9286709124E-07   0.9286709125E-07   0.0000000000E+00  -0.1169741383E-01   0.1169741383E-01   0.3663891543E+03   0.1197583360E+02   0.1197583360E+02  -0.4342654909E+00   0.4342654909E+00  -0.1973774433E-13   0.5009461993E-01   0.4393570606E-01   0.4905973089E-01
   0.0000000000E+00   0.1169750669E-01   0.9883024933E+00   0.0000000000E+00   0.9286709125E-07  -0.9286709124E-07   0.0000000000E+00   0.1169741383E-01  -0.1169741383E-01   0.3663891543E+03   0.1197583360E+02   0.1197583360E+02   0.4342654909E+00  -0.4342654909E+00  -0.1385711167E-13   0.5009461993E-01   0.4393570606E-01   0.4905973089E-01
   0.1050259460E+01   0.1159666087E-01   0.9884033391E+00   0.4702337526E-06   0.6085078167E-07  -0.6085078166E-07   0.5025899020E-01   0.1159660002E-01  -0.1159660002E-01   0.3549721494E+03   0.5692480622E+00   0.5692480622E+00   0.4303798624E+00  -0.4303798624E+00  -0.9258337491E-14   0.4983334559E-01   0.4370721879E-01   0.4877570481E-01
   0.1050259460E+01   0.9884033391E+00   0.9884033391E+00   0.4702337526E-06  -0.6085078167E-07  -0.6085078167E-07   0.5025899020E-01  -0.1159660002E-01  -0.1159660002E-01   0.3549721494E+03   0.5692480622E+00   0.5692480622E+00  -0.4303798624E+00  -0.4303798624E+00  -0.3155242053E-11   0.4983334559E-01   0.4370721878E-01   0.4877570481E-01
   0.0000000000E+00   0.9883024933E+00   0.9883024933E+00   0.0000000000E+00  -0.9286709125E-07  -0.9286709125E-07   0.0000000000E+00  -0.1169741383E-01  -0.1169741383E-01   0.3663891543E+03   0.1197583360E+02   0.1197583360E+02  -0.4342654909E+00  -0.4342654909E+00  -0.3298266867E-10   0.5009461993E-01   0.4393570606E-01   0.4905973089E-01
   0.2100000000E+01   0.1161847698E-01   0.1161847698E-01   0.1000000000E-05   0.2892893563E-07   0.2892893563E-07   0.9999900000E-01   0.1161844806E-01   0.1161844806E-01   0.3436392184E+03  -0.1084136807E+02  -0.1084136807E+02   0.4266553664E+00   0.4266553664E+00  -0.2918947943E-10   0.4963724759E-01   0.4353431282E-01   0.4854749449E-01
   0.2100000000E+01   0.9883815230E+00   0.1161847698E-01   0.1000000000E-05  -0.2892893563E-07   0.2892893563E-07   0.9999900000E-01  -0.1161844806E-01   0.1161844806E-01   0.3436392184E+03  -0.1084136807E+02  -0.1084136807E+02  -0.4266553664E+00   0.4266553664E+00   0.2849679099E-13   0.4963724759E-01   0.4353431282E-01   0.4854749449E-01
   0.2100000000E+01   0.1161847698E-01   0.9883815230E+00   0.1000000000E-05   0.2892893563E-07  -0.2892893563E-07   0.9999900000E-01   0.1161844806E-01  -0.1161844806E-01   0.3436392184E+03  -0.1084136807E+02  -0.1084136807E+02   0.4266553664E+00  -0.4266553664E+00  -0.3599876950E-13   0.4963724759E-01   0.4353431282E-01   0.4854749449E-01
   0.2100000000E+01   0.9883815230E+00   0.9883815230E+00   0.1000000000E-05  -0.2892893563E-07  -0.2892893563E-07   0.9999900000E-01  -0.1161844806E-01  -0.1161844806E-01   0.3436392184E+03  -0.1084136807E+02  -0.1084136807E+02  -0.4266553663E+00  -0.4266553663E+00   0.2918197745E-10   0.4963724758E-01   0.4353431282E-01   0.4854749449E-01
     1     2     3     4     5     6     7     8
     2     9    10     3     6    11    12     7
