 VARIABLES = X,Y,DU1,DU2,U1,U2,S11,S22,S33,S12,SMISES
 ZONE, T="0.1000D+01" F=FEPOINT, I=    9 J=    8
   0.0000000000E+00   0.0000000000E+00   0.0000000000E+00   0.0000000000E+00   0.0000000000E+00   0.0000000000E+00   0.5494505505E+01  -0.3644003496E-15  -0.1648351651E+01  -0.3336006693E-15   0.4758381348E+01
   0.2100000000E+01   0.0000000000E+00   0.1000000000E+00   0.0000000000E+00   0.0000000000E+00   0.0000000000E+00   0.5494505507E+01   0.1970971133E-14  -0.1648351652E+01  -0.5004010040E-15   0.4758381350E+01
   0.2100000000E+01   0.1957142857E+01   0.1000000000E+00  -0.4285714286E-01   0.0000000000E+00   0.0000000000E+00   0.5494505505E+01   0.1387128262E-14  -0.1648351651E+01  -0.5004010038E-15   0.4758381348E+01
   0.1050000000E+01   0.0000000000E+00   0.5000000000E-01   0.0000000000E+00   0.0000000000E+00   0.0000000000E+00   0.5494505503E+01  -0.7247891541E-16  -0.1648351651E+01  -0.8757017560E-15   0.4758381347E+01
   0.2100000000E+01   0.9785714286E+00   0.1000000000E+00  -0.2142857143E-01   0.0000000000E+00   0.0000000000E+00   0.5494505497E+01  -0.5103610679E-15  -0.1648351649E+01   0.1668003345E-15   0.4758381341E+01
   0.1050000000E+01   0.9785714286E+00   0.5000000000E-01  -0.2142857143E-01   0.0000000000E+00   0.0000000000E+00   0.5494505501E+01   0.2700774720E-14  -0.1648351650E+01  -0.5421010868E-15   0.4758381345E+01
   0.0000000000E+00   0.1957142857E+01   0.0000000000E+00  -0.4285714286E-01   0.0000000000E+00   0.0000000000E+00   0.5494505503E+01   0.1970971132E-14  -0.1648351651E+01  -0.5004010034E-15   0.4758381347E+01
   0.1050000000E+01   0.1957142857E+01   0.5000000000E-01  -0.4285714286E-01   0.0000000000E+00   0.0000000000E+00   0.5494505499E+01  -0.2261889678E-14  -0.1648351650E+01  -0.6672013374E-15   0.4758381343E+01
   0.0000000000E+00   0.9785714286E+00   0.0000000000E+00  -0.2142857143E-01   0.0000000000E+00   0.0000000000E+00   0.5494505499E+01   0.3430578306E-14  -0.1648351650E+01  -0.2085004181E-15   0.4758381343E+01
           1           4           6           6
           4           2           5           5
           5           3           6           6
           4           5           6           6
           1           6           9           9
           6           3           8           8
           8           7           9           9
           6           8           9           9
